%nprocshared=20
%mem=5GB
#p m062x/cc-pVTZ opt=(calcfc,maxcycles=900,Tight) freq IOP(7/33=1,2/16=3) scf=(maxcycle=900) 

Gaussian input prepared by ASE

0 1
O                 0.2256286131       -0.7561737872        1.1456340897
O                 2.4834434330        2.1004789705        0.8496345436
C                -1.1719377014       -0.8693360575        0.8674804142
C                 0.6957743511        0.5293889294        0.9092559038
C                 1.9541643522        0.8523617819        1.0912316215
H                -1.3318761449       -1.5677564256       -0.0037593138
H                -1.6848247215       -1.3249572981        1.7619343815
H                -1.6001975349        0.1082332478        0.6451250040
H                -0.0530370852        1.2423915328        0.5696430504
H                 2.6832369861        0.1569290197        1.4485822305
H                 1.7279686376        2.6778321752        0.4891672768



