%nprocshared=20
%mem=5GB
#p m062x/cc-pVTZ opt=(calcfc,maxcycles=900,Tight) freq IOP(7/33=1,2/16=3) scf=(maxcycle=900) 

Gaussian input prepared by ASE

0 1
O                 0.2311607630       -0.8023334742        1.1508272928
O                 2.9276893003       -0.0187420947        1.5792584833
C                -1.1746733703       -0.8770340696        0.9030027971
C                 0.6908690119        0.4916542334        0.9414298275
C                 1.9438113817        0.8326004799        1.1281464440
H                -1.4782813192       -1.9587660722        1.0035416844
H                -1.7404761374       -0.2590589734        1.6571020738
H                -1.4062433844       -0.5249959975       -0.1024496803
H                -0.0561618762        1.2178602336        0.6267905618
H                 2.3009335705        1.8230990145        0.9430802795
H                 2.4669850545       -0.8976498745        1.8012680606



