%nprocshared=20
%mem=5GB
#p m062x/cc-pVTZ opt=(calcfc,maxcycles=900,Tight) freq IOP(7/33=1,2/16=3) scf=(maxcycle=900) 

Gaussian input prepared by ASE

0 1
O                 0.2254740107       -0.7434609984        1.0880335533
O                 2.1235287426        2.1079357327       -0.1843498998
C                -1.1802136636       -0.8616903134        0.8568826036
C                 0.6539310884        0.5549437897        0.8427730820
C                 1.6511600739        0.8335461771        0.0372378064
H                -1.6363359143        0.1463302323        0.6371622089
H                -1.3523684544       -1.5301562231       -0.0343007476
H                -1.6644253150       -1.3052574267        1.7270995034
H                 0.1329917936        1.3282258009        1.4040977227
H                 2.1730922582        0.0894952260       -0.5256547829
H                 1.5910957740        2.7301861139        0.4184229738



