%nprocshared=20
%mem=5GB
#p m062x/cc-pVTZ opt=(calcfc,maxcycles=900,Tight) freq IOP(7/33=1,2/16=3) scf=(maxcycle=900) 

Gaussian input prepared by ASE

0 1
O                 0.2160237836       -0.7344994437        1.1277945400
O                 0.4277654115        2.8714426005        0.4236208518
C                -1.1790423759       -0.9199207511        0.8772429098
C                 0.6635019197        0.5639686169        0.9196427365
C                -0.0633924376        1.5910230844        0.5484881405
H                -1.3076748738       -1.6197132265        0.0019291650
H                -1.6569572231       -1.3810845032        1.7880761012
H                -1.6731433870        0.0258535820        0.6539375992
H                 1.7273920175        0.6521388367        1.1312840421
H                -1.1076938711        1.5318768133        0.3275598157
H                 1.3666156622        2.8692060410        0.8142239043



