%nprocshared=20
%mem=5GB
#p m062x/cc-pVTZ opt=(ts,calcfc,noeigentest,maxcycles=900) freq scf=(maxcycle=900) IOP(7/33=1,2/16=3) 

Gaussian input prepared by ASE

0 2
O                 1.8501430000        0.7546470000        0.2209340000
O                 1.7152150000       -0.4151680000       -0.5234490000
C                -1.6717350000       -0.4136910000       -0.1210260000
C                -0.4295030000       -1.1097900000        0.3594480000
C                -1.5545020000        1.1053910000       -0.0630590000
H                -2.5180510000       -0.7421570000        0.4946370000
H                -1.9019460000       -0.7358450000       -1.1382670000
H                 0.5827590000       -0.6789770000       -0.4548560000
H                -0.0486930000       -0.7766500000        1.3214940000
H                -0.3922660000       -2.1885580000        0.2351280000
H                -1.3721740000        1.4407250000        0.9581010000
H                -2.4653580000        1.5842360000       -0.4176760000
H                -0.7199560000        1.4511090000       -0.6719710000
H                 2.2472590000        0.4388280000        1.0413480000



