%nprocshared=20
%mem=5GB
#p m062x/cc-pVTZ Opt=(ModRedun,Loose,maxcycles=900) Int(Grid=SG1) scf=(maxcycle=900) 

Gaussian input prepared by ASE

0 2
O                 2.0358388099       -0.6155524871       -1.3692238669
O                 1.1006662971       -1.5009320447       -1.0981126165
C                -0.2981663287       -0.1774725325        1.8758265565
C                 0.7857462843       -1.0552973052        1.2607119201
C                -1.2796205165       -0.9414182645        2.7592482767
H                -0.8715039550        0.3381749939        1.0758953251
H                 0.1809218306        0.6294822541        2.4704533705
H                 0.6297724578       -1.1376777901       -0.0965835861
H                 1.8053835520       -0.6274858628        1.3679803781
H                 0.7671182337       -2.1090192844        1.6120991653
H                -1.7889110850       -1.7450886953        2.1856571282
H                -2.0548293660       -0.2525341511        3.1560430699
H                -0.7567298798       -1.4081249610        3.6211598566
H                 1.5463469813        0.1100233541       -1.8323741000

4 8 F
8 2 F
4 8 2 F

