%nprocshared=20
%mem=5GB
#p m062x/cc-pVTZ Opt=(ModRedun,Loose,maxcycles=900) Int(Grid=SG1) scf=(maxcycle=900) 

Gaussian input prepared by ASE

0 2
O                 1.8799942415       -2.5860832083        0.2430747112
O                 1.1535947408       -1.5322756026        0.5493086015
C                 3.6404076224        0.4735999053        2.0463814266
C                 2.4441539011       -0.4411619973        2.2830174248
C                 4.3152232856        0.9192462026        3.3399511149
H                 3.3117894670        1.3731278460        1.4830360869
H                 4.3871645165       -0.0521437150        1.4137438315
H                 1.8960257738       -0.8121280162        1.0849751723
H                 2.7241340412       -1.3983426749        2.7725126562
H                 1.6225129323        0.0541492798        2.8431271169
H                 3.6067359138        1.4849156861        3.9820831336
H                 5.1794539388        1.5777662524        3.1110124503
H                 4.6854681467        0.0437062154        3.9148161458
H                 1.6767858677       -3.2284201036        0.9688021806

4 8 F
8 2 F
4 8 2 F

