%nprocshared=20
%mem=5GB
#p m062x/cc-pVTZ opt=(calcfc,maxcycles=900,Tight) freq IOP(7/33=1,2/16=3) scf=(maxcycle=900) 

Gaussian input prepared by ASE

0 1
O                 0.1912520169       -0.7811336879        1.0820413736
O                -0.8001540624        1.5953341075        2.5098929368
C                -1.2084464274       -0.8992520973        0.8169770862
C                 0.6572640825        0.5197325974        0.9400455198
C                 0.2280531766        1.5727737972        1.5941512068
H                -1.4500705520       -0.5484067250       -0.2275109640
H                -1.4746657044       -1.9907894156        0.9084390418
H                -1.8003398151       -0.3262423544        1.5309884392
H                 1.5096770729        0.5969387968        0.2678405907
H                 0.6543715056        2.5407123417        1.4385210472
H                -1.0989366057        0.6316628360        2.6367085994



