%nprocshared=20
%mem=5GB
#p m062x/cc-pVTZ opt=(calcfc,maxcycles=900,Tight) freq IOP(7/33=1,2/16=3) scf=(maxcycle=900) 

Gaussian input prepared by ASE

0 1
O                 0.0697416198       -0.7268580566        0.2261639909
O                 2.6373447546        0.0640197406       -0.6291894305
C                -1.2349936352       -0.8658242795        0.7933686040
C                 0.6698217895        0.4535428793        0.6458550444
C                 1.8659195117        0.8053700407        0.2377620313
H                -1.9162255560       -0.0411796615        0.4351587436
H                -1.6478863713       -1.8567862406        0.4495580601
H                -1.1915876233       -0.8455992583        1.8824953307
H                 0.0923260206        1.0686679080        1.3332763170
H                 2.3393096646        1.7099598614        0.5547669359
H                 2.0928964542       -0.7628140568       -0.8614338267



