%nprocshared=20
%mem=5GB
#p m062x/cc-pVTZ opt=(calcfc,maxcycles=900,Tight) freq IOP(7/33=1,2/16=3) scf=(maxcycle=900) 

Gaussian input prepared by ASE

0 1
O                 2.9358024683       -3.0083644174        0.1846615022
O                 0.8604584236       -0.1786368778        1.0949135348
C                 3.8296460485       -3.7682981124        0.9704233576
C                 4.5118374699       -4.8031249022        0.0755710180
C                 3.1729733317       -4.3883013903        2.1597283809
C                 2.2735980384       -2.0494570106        0.9166975930
C                 1.5524846384       -1.1241791521        0.3528639304
H                 4.6328938550       -3.0767136530        1.3483785226
H                 5.0196650945       -4.3073966597       -0.7779958940
H                 5.2669652401       -5.3720711463        0.6479067954
H                 3.7653251920       -5.5330802403       -0.3397781886
H                 2.4021688680       -5.1578461957        1.8591503690
H                 2.6622163328       -3.6104400341        2.7648180344
H                 3.9323596767       -4.9001948625        2.8161269124
H                 2.3671282530       -2.1401454614        2.0106648931
H                 1.4477952971       -1.0364932272       -0.7184782280
H                 0.3911691215        0.4160942876        0.4408148482



