%nprocshared=20
%mem=5GB
#p m062x/cc-pVTZ opt=(calcfc,maxcycles=900,Tight) freq IOP(7/33=1,2/16=3) scf=(maxcycle=900) 

Gaussian input prepared by ASE

0 1
O                 0.4565825464        0.7810887464       -0.1004258362
O                 2.5584195174       -1.0441787510        2.2232185711
C                 0.5718857058        2.1041865102       -0.5800035138
C                 0.5468217349        3.1361179350        0.5476053111
C                -0.4879507973        2.3517841271       -1.6025061137
C                 1.4159939165        0.4751049934        0.8375500301
C                 1.6140204712       -0.7422264006        1.2534127609
H                 1.5706033681        2.2030716146       -1.0890526050
H                 1.3127917072        2.8794768282        1.3089443970
H                 0.7669999669        4.1460595114        0.1564204720
H                -0.4559165546        3.1651930548        1.0538670023
H                -1.5224945348        2.2556063147       -1.1584847699
H                -0.4090198378        1.6278698297       -2.4402366693
H                -0.3940224155        3.3902090555       -2.0296041200
H                 1.9764523313        1.3347909673        1.2382533387
H                 1.0569388720       -1.5864012015        0.8746625828
H                 2.5236622433       -2.0346346102        2.3631179021



