%nprocshared=20
%mem=5GB
#p m062x/cc-pVTZ opt=(calcfc,maxcycles=900,Tight) freq IOP(7/33=1,2/16=3) scf=(maxcycle=900) 

Gaussian input prepared by ASE

0 1
O                 3.8646904867        0.9871983575        2.3084386049
O                 0.9318652118       -1.0746514911        1.5834828442
C                 4.6848922447        0.3282498753        3.2502099327
C                 3.9047440250       -0.1372548404        4.4797165187
C                 5.8275237692        1.2168656092        3.6173949497
C                 2.9600207368        0.1537349567        1.6913435044
C                 1.8544881702       -0.2683508286        2.2332783567
H                 5.1098436139       -0.5921591784        2.7617329961
H                 3.5337372646        0.7249851710        5.0722601933
H                 3.0342955351       -0.7491378543        4.1807104591
H                 4.5593593897       -0.7611088264        5.1467362100
H                 5.4714942452        2.1637849160        4.1206569832
H                 6.4102448611        1.5080961770        2.7186762086
H                 6.5261782355        0.6931569591        4.3295555822
H                 3.2060892063       -0.0788680811        0.6429719648
H                 1.5584665740       -0.0516935585        3.2490802773
H                 1.2670180738       -1.2103231391        0.6501830730



