%nprocshared=20
%mem=5GB
#p m062x/cc-pVTZ opt=(calcfc,maxcycles=900,Tight) freq IOP(7/33=1,2/16=3) scf=(maxcycle=900) 

Gaussian input prepared by ASE

0 1
O                 1.6493171488       -0.5889478486       -1.2722930497
O                 1.9425234078        1.6006882959        0.4890471797
C                 1.1552519826       -1.6778956540       -2.0232721097
C                -0.3565289842       -1.5765263307       -2.2263851292
C                 1.5625502223       -2.9948895402       -1.4490728343
C                 1.2495515272       -0.6295554956        0.0439263191
C                 1.4034452151        0.3764247515        0.8553278999
H                 1.6381064768       -1.5689657094       -3.0338818339
H                -0.8955002270       -1.6574738415       -1.2593435790
H                -0.6232570095       -0.6096452597       -2.6905867826
H                -0.7222224773       -2.4006837964       -2.8969543507
H                 1.1783634701       -3.1022062500       -0.3919212211
H                 2.6675592897       -3.0964010488       -1.4221495254
H                 1.1471403829       -3.8479426711       -2.0567706220
H                 0.8290861841       -1.5897065978        0.3831246479
H                 1.1187464102        0.3358406857        1.8963477000
H                 2.1735409618        1.5289816709       -0.4821746022



