%nprocshared=20
%mem=5GB
#p m062x/cc-pVTZ opt=(calcfc,maxcycles=900,Tight) freq IOP(7/33=1,2/16=3) scf=(maxcycle=900) 

Gaussian input prepared by ASE

0 1
O                 2.5795885846        1.0737843283       -0.8888127469
O                 0.0876548480        0.5301657768        0.3761540219
C                 2.5356951744        0.7154512090       -2.2539310583
C                 1.0974822483        0.7351940036       -2.7717786530
C                 3.2341993038       -0.5739517877       -2.5360683533
C                 2.3724831927        0.0134930984       -0.0362959879
C                 1.2457360092       -0.2060728611        0.5771236271
H                 3.0997624008        1.5313344460       -2.7854467380
H                 0.3837061775        0.6828039602       -1.9232558990
H                 0.8870404701        1.6661854876       -3.3289636625
H                 0.8850592962       -0.1293822942       -3.4573548010
H                 2.7061792413       -1.4475692432       -2.0516375275
H                 4.2779286764       -0.5550563839       -2.1587800678
H                 3.2697541452       -0.7710954618       -3.6448658123
H                 3.2571665984       -0.6126511004        0.1612273369
H                 1.1135753950       -0.9976208742        1.2999016116
H                 0.2853235414        1.1690488324       -0.3685192144



