%nprocshared=20
%mem=5GB
#p m062x/cc-pVTZ opt=(calcfc,maxcycles=900,Tight) freq IOP(7/33=1,2/16=3) scf=(maxcycle=900) 

Gaussian input prepared by ASE

0 1
O                 0.7134437353       -2.6671454437        0.4976701161
O                -0.1075181134        0.2365624847       -0.3005754479
C                -0.6959939974       -2.5880539051        0.4643975125
C                -1.2407674238       -2.3363986682       -0.9416266287
C                -1.2629501719       -1.6868017907        1.5114767275
C                 1.4505234308       -1.5326280221        0.2457203147
C                 1.1489061125       -0.3120057143       -0.0906726475
H                -1.0151155091       -3.6328475482        0.7344232784
H                -1.0014122896       -1.3147327378       -1.3037311805
H                -0.8172235006       -3.0689213558       -1.6526168377
H                -2.3580921181       -2.4555223920       -0.9466670644
H                -1.0358964502       -0.5984682787        1.3098269217
H                -0.8550263438       -1.9443253867        2.5111537943
H                -2.3830611439       -1.7995685435        1.5583451602
H                 2.5207049655       -1.7683284646        0.3592700140
H                 1.9559344541        0.3919372350       -0.2306450736
H                 0.0367520784        1.1972829378       -0.5413762426



