%nprocshared=20
%mem=5GB
#p m062x/cc-pVTZ opt=(calcfc,maxcycles=900,Tight) freq IOP(7/33=1,2/16=3) scf=(maxcycle=900) 

Gaussian input prepared by ASE

0 1
O                 2.7995655825        1.8417463741        0.8173648546
O                 0.4958219406       -1.0166851008        0.6318935964
C                 2.3506634683        2.6406107270       -0.2569627945
C                 0.9286823695        3.1587109714       -0.0411985216
C                 2.5326263663        1.9965515915       -1.5919335409
C                 2.1005105747        0.6778922127        1.0424438343
C                 1.1443933424        0.1690889008        0.3206328633
H                 3.0290393675        3.5378665298       -0.2240329658
H                 0.1818262765        2.3411076277       -0.1182868392
H                 0.8326877232        3.6258365986        0.9558294100
H                 0.6771285989        3.9320559691       -0.8166265033
H                 1.7783929826        1.1723410259       -1.7607376184
H                 3.5484179734        1.5598885002       -1.6897458390
H                 2.3981604532        2.7545130932       -2.4147183609
H                 2.4580149110        0.1778544526        1.9567138371
H                 0.7709688571        0.6126240537       -0.5905495673
H                 0.9079122225       -1.3626902680        1.4758395212



