%nprocshared=20
%mem=5GB
#p m062x/cc-pVTZ opt=(calcfc,maxcycles=900,Tight) freq IOP(7/33=1,2/16=3) scf=(maxcycle=900) 

Gaussian input prepared by ASE

0 1
O                -0.2550363208        1.0176773079        1.9879551825
O                -0.4067715913       -1.6686011307        1.0629178703
C                 0.1670938254        2.2825958043        2.4523522078
C                -0.8638757167        2.8082690258        3.4512424908
C                 0.4306527466        3.2494889192        1.3452280235
C                 0.6232931440        0.4691796612        1.0815432216
C                 0.5497991794       -0.7550598499        0.6457814671
H                 1.1309986605        2.1426960130        3.0159670828
H                -1.0080538062        2.0826563028        4.2788358176
H                -0.5295793373        3.7687455690        3.8839280124
H                -1.8582474502        2.9748152055        2.9551401167
H                -0.5114476446        3.4991612792        0.7735669041
H                 1.1621115384        2.8230328779        0.6274691707
H                 0.8557647507        4.2129376602        1.7459871624
H                 1.4006864272        1.1518665546        0.7029470795
H                 1.2523409519       -1.1258856390       -0.0858919518
H                -0.2262725574       -2.5216543770        0.5714883659



