%nprocshared=20
%mem=5GB
#p m062x/cc-pVTZ opt=(calcfc,maxcycles=900,Tight) freq IOP(7/33=1,2/16=3) scf=(maxcycle=900) 

Gaussian input prepared by ASE

0 1
O                 2.3043296967        2.8686555500        0.0535767081
O                 2.4530821297        1.1570796508        2.5551388798
C                 2.9075256707        3.5191983852        1.1521329864
C                 1.8649939872        4.0502619039        2.1360595883
C                 3.7967991457        4.6060166535        0.6441090713
C                 1.6533554051        1.6937112722        0.3529650444
C                 1.7020946489        0.9361762767        1.4102338213
H                 3.5516018088        2.7766246540        1.6999435304
H                 1.2057505325        3.2310721209        2.4917814274
H                 2.3572814354        4.5062320699        3.0142567734
H                 1.2186901274        4.8333695422        1.6547446313
H                 3.2134073579        5.3921622338        0.0799149394
H                 4.5703804959        4.2012089948       -0.0412938350
H                 4.3246208747        5.1201558127        1.4965331017
H                 1.0299904340        1.3725590773       -0.4967491020
H                 1.1122439959        0.0318690400        1.4372028541
H                 2.2042278736        0.4371972248        3.2044643389



