%nprocshared=20
%mem=5GB
#p m062x/cc-pVTZ opt=(calcfc,maxcycles=900,Tight) freq IOP(7/33=1,2/16=3) scf=(maxcycle=900) 

Gaussian input prepared by ASE

0 1
O                -0.2014825600       -1.4489022212        1.8730697879
O                 0.9297849069        1.3351602406        2.2817671197
C                -1.1670602671       -0.4927774684        2.2569479050
C                -2.3336405469       -1.2262918340        2.9188085070
C                -1.6169858214        0.3443447137        1.1050525071
C                 1.0145571358       -0.9316403322        1.4889050361
C                 1.5293929537        0.2519254889        1.6567385180
H                -0.7150842878        0.1809367339        3.0368024413
H                -2.8280640906       -1.9218148353        2.2088754299
H                -1.9840614650       -1.8112796241        3.7889060710
H                -3.1035434162       -0.4910000802        3.2782886157
H                -2.1279851464       -0.2819460420        0.3155428814
H                -0.7595075564        0.8612090605        0.6258273386
H                -2.3501490713        1.1302293280        1.4433106956
H                 1.6232672564       -1.7064056246        0.9960080076
H                 2.5248547766        0.4507595083        1.2880333623
H                 1.5546726743        2.1096210764        2.1744899462



