%nprocshared=20
%mem=5GB
#p m062x/cc-pVTZ opt=(calcfc,maxcycles=900,Tight) freq IOP(7/33=1,2/16=3) scf=(maxcycle=900) 

Gaussian input prepared by ASE

0 1
O                 3.6716151973        0.8797437401        2.9903673542
O                 1.0886610238        1.2501334091        1.8575499706
C                 4.9822238103        0.4493740634        3.2919701809
C                 5.0010647573       -0.6701492297        4.3327991509
C                 5.8053357091        1.6245221419        3.7061963940
C                 2.8604176411       -0.1534019688        2.5799243875
C                 1.6726907039        0.0108490268        2.0735861771
H                 5.4353789355        0.0266102703        2.3526792687
H                 4.6213702083       -0.3186051948        5.3148687518
H                 4.3671111035       -1.5100419469        3.9949101030
H                 6.0468921978       -1.0542987980        4.4787594671
H                 5.4117104019        2.0914795563        4.6568255334
H                 5.8070856118        2.4061616114        2.9180903303
H                 6.8729343562        1.3165683287        3.8931700754
H                 3.2652445709       -1.1656258105        2.7388419796
H                 1.0678284534       -0.8383665928        1.7918111085
H                 0.1880198491        1.0788056540        1.4559594143



