%nprocshared=20
%mem=5GB
#p m062x/cc-pVTZ opt=(calcfc,maxcycles=900,Tight) freq IOP(7/33=1,2/16=3) scf=(maxcycle=900) 

Gaussian input prepared by ASE

0 1
O                 0.8181738030       -2.7361305797       -0.0144398488
O                 2.4499341720        0.3290538010        1.1148535900
C                -0.5230147783       -2.3596278796        0.2165063920
C                -1.3862687090       -3.6194984390        0.2838202435
C                -1.0192837307       -1.3877610880       -0.8029354290
C                 1.7270911582       -1.7444784385        0.2760601205
C                 1.4604569231       -0.6045558762        0.8448613043
H                -0.5747756648       -1.8607521282        1.2238742520
H                -1.3789337531       -4.1634383112       -0.6837992446
H                -1.0149250719       -4.3032426855        1.0687302566
H                -2.4502581099       -3.3510928957        0.5257197248
H                -0.3575030557       -0.4727735335       -0.8420504274
H                -2.0502198005       -1.0526107975       -0.5643571550
H                -1.0324839715       -1.8433075090       -1.8334036682
H                 2.7490642163       -2.0338502819       -0.0164663824
H                 0.4642437801       -0.3169121133        1.1469260976
H                 1.9990086783        1.1148635059        1.5402381300



