%nprocshared=20
%mem=5GB
#p m062x/cc-pVTZ opt=(calcfc,maxcycles=900,Tight) freq IOP(7/33=1,2/16=3) scf=(maxcycle=900) 

Gaussian input prepared by ASE

0 1
O                 1.3507416094        0.1201517241        3.3279654747
O                 2.9088628935       -1.5762451294        0.5274307756
C                 1.4812413407        1.4565129830        3.7649845427
C                 0.9005693217        2.4371790374        2.7460996492
C                 2.8861177572        1.7947626941        4.1417854813
C                 2.1642590802       -0.1658590264        2.2554534070
C                 2.0652193445       -1.2783744630        1.5872075060
H                 0.8430725690        1.5175811880        4.6898399385
H                 1.4756162500        2.4170665823        1.7968218293
H                -0.1510893780        2.1849985160        2.5182729960
H                 0.9298152606        3.4862548844        3.1476153802
H                 3.5794307120        1.6468003364        3.2619501800
H                 3.2447775083        1.1491284515        4.9703952191
H                 2.9708032561        2.8686186643        4.4722749691
H                 2.9279871501        0.5941791178        2.0256748081
H                 1.3268205523       -2.0329030491        1.8149717183
H                 2.6356239927       -2.4754974909        0.1832383971



