%nprocshared=20
%mem=5GB
#p m062x/cc-pVTZ opt=(calcfc,maxcycles=900,Tight) freq IOP(7/33=1,2/16=3) scf=(maxcycle=900) 

Gaussian input prepared by ASE

0 1
O                 4.6388983386       -1.5448062530        1.8504046535
O                 1.0631685428       -0.8607143670        1.9191057144
C                 5.5321720444       -1.6626373995        0.7631810485
C                 6.9206085568       -2.0028238419        1.3049647373
C                 5.5424092080       -0.4492058822       -0.1071916955
C                 3.3547945018       -1.2577009650        1.4472386206
C                 2.3666159548       -1.1577485169        2.2884072823
H                 5.1992047273       -2.5325568846        0.1317389964
H                 7.2801153124       -1.2187389957        2.0036618868
H                 6.9023376486       -2.9667172431        1.8453920729
H                 7.6594813793       -2.0864376033        0.4625242165
H                 5.9190887033        0.4601250131        0.4477098730
H                 4.5187041279       -0.2252427134       -0.4731737962
H                 6.2060563780       -0.6046275326       -1.0043974268
H                 3.2198414537       -1.0995130763        0.3653416677
H                 2.4706738743       -1.2986697921        3.3541163625
H                 1.0591918706       -0.7468146699        0.9247246280



