%nprocshared=20
%mem=5GB
#p m062x/cc-pVTZ opt=(calcfc,maxcycles=900,Tight) freq IOP(7/33=1,2/16=3) scf=(maxcycle=900) 

Gaussian input prepared by ASE

0 1
O                 1.0146735947        1.9200686288        0.5698888194
O                -0.4715501535       -0.0662957861        1.9219121044
C                 2.0191255985        2.6873623044       -0.0595663796
C                 1.8442988925        4.1512111786        0.3449016990
C                 2.0439814047        2.5045714985       -1.5414703138
C                 1.1017579860        0.5817928735        0.2611344324
C                 0.4042480322       -0.3271985290        0.8786022814
H                 3.0151494117        2.3503281636        0.3412961422
H                 1.8691049807        4.2561192606        1.4497052165
H                 2.6545056763        4.7701362807       -0.0816926112
H                 0.8632182644        4.5580235546       -0.0219972407
H                 1.1009800264        2.8933641798       -2.0275510906
H                 2.1398968613        1.4280867750       -1.7945619082
H                 2.9174017407        3.0505670266       -1.9981839876
H                 1.7762287149        0.3278727657       -0.5721425712
H                 0.4533128520       -1.3752920844        0.6226428267
H                -0.4450687784        0.9227963557        2.0728364956



