%nprocshared=20
%mem=5GB
#p m062x/cc-pVTZ opt=(calcfc,maxcycles=900,Tight) freq IOP(7/33=1,2/16=3) scf=(maxcycle=900) 

Gaussian input prepared by ASE

0 1
O                 2.8541005562        1.7027276057        0.5443622343
O                 0.6510999501        0.2132999279       -0.9139253926
C                 2.3244230335        2.6511879942       -0.3577141890
C                 3.3581150631        3.7622678611       -0.5420905631
C                 0.9936568966        3.1873389065        0.0566205163
C                 1.9758956645        0.7613613191        1.0306549885
C                 1.0399782554        0.1009443773        0.4126257688
H                 2.2050755961        2.1634922561       -1.3648166000
H                 3.5222924634        4.3198999722        0.4035859513
H                 4.3260138446        3.3408916274       -0.8693519856
H                 3.0111239914        4.4927709831       -1.3222140948
H                 1.0423601827        3.6633544936        1.0802039378
H                 0.2262283364        2.3860123643        0.0883012311
H                 0.6420435457        3.9738008106       -0.6696076192
H                 2.1893826277        0.5227505462        2.0848015464
H                 0.4363302750       -0.6214958081        0.9418818450
H                 1.3057730544        0.8249461833       -1.3601032549



