%nprocshared=20
%mem=5GB
#p m062x/cc-pVTZ opt=(calcfc,maxcycles=900,Tight) freq IOP(7/33=1,2/16=3) scf=(maxcycle=900) 

Gaussian input prepared by ASE

0 1
O                 0.2132053370       -0.7375083632        1.1351323024
O                 2.4972778690        2.0955420778        0.8534736156
C                -1.1907242292       -0.8248846764        0.8807429885
C                 0.7049949738        0.5400827913        0.8995756104
C                 1.9657311261        0.8477221372        1.0916027104
H                -1.7071558052       -1.2486079451        1.7896912813
H                -1.6235372945        0.1904039716        0.6514974398
H                -1.3767770702       -1.4884520948        0.0360224540
H                -0.0307017905        1.2654827759        0.5575620094
H                 2.6975369602        0.1510004643        1.4407620174
H                 1.7378507408        2.6826464653        0.5179227028



