%nprocshared=20
%mem=5GB
#p m062x/cc-pVTZ opt=(calcfc,maxcycles=900,Tight) freq IOP(7/33=1,2/16=3) scf=(maxcycle=900) 

Gaussian input prepared by ASE

0 1
O                 0.2377593465       -0.7601525473        1.0752142809
O                 0.3736492763        2.8614347349        0.4610227209
C                -1.1624647566       -0.8895818632        0.8183343804
C                 0.6628377893        0.5561540894        0.9478238743
C                -0.0857547167        1.5687292829        0.5800294242
H                -1.4112945749       -0.5585547950       -0.2309200128
H                -1.4282839068       -1.9784647620        0.9381923042
H                -1.7375901385       -0.2922905583        1.5261225212
H                 1.7193424186        0.6629154655        1.1862104236
H                -1.1234992365        1.4838086621        0.3376497844
H                 1.3557780659        2.8533171598        0.7244096711



