%nprocshared=20
%mem=5GB
#p m062x/cc-pVTZ opt=(calcfc,maxcycles=900,Tight) freq IOP(7/33=1,2/16=3) scf=(maxcycle=900) 

Gaussian input prepared by ASE

0 1
O                 0.1655339240       -0.7496594301        1.0982213682
O                -0.7532899766        1.6278534353        2.5368664691
C                -1.2312940433       -0.8641076873        0.8169030502
C                 0.6542103341        0.5406366078        0.9372410562
C                 0.2624001115        1.5981145685        1.6074627600
H                -1.8526612087       -0.2740097106        1.5504677738
H                -1.4667006070       -0.5023286753       -0.2244381073
H                -1.4909114987       -1.9197640732        0.8986253340
H                 1.4967982876        0.5975650716        0.2507770290
H                 0.7012740074        2.5610137312        1.4555154140
H                -1.0952949882        0.6741356741        2.6232987775



