%nprocshared=20
%mem=5GB
#p m062x/cc-pVTZ opt=(calcfc,maxcycles=900,Tight) freq IOP(7/33=1,2/16=3) scf=(maxcycle=900) 

Gaussian input prepared by ASE

0 1
O                 0.1763760267       -0.6319813890        0.3887599994
O                 0.6853943376        2.7015464366        1.8505262834
C                -1.1536174692       -0.8019576664        0.8843325328
C                 0.7183092517        0.5905411175        0.7646991711
C                 0.1171380714        1.4981342414        1.4967100681
H                -1.5213421047       -1.8045075856        0.5208738253
H                -1.1636107196       -0.7913941963        2.0114883597
H                -1.8105893772       -0.0145439330        0.5143897203
H                 1.7273531865        0.7196651681        0.3779363403
H                -0.8728888506        1.3859515000        1.8841824108
H                 1.6165745829        2.7207284608        1.4424197523



