%nprocshared=20
%mem=5GB
#p m062x/cc-pVTZ opt=(calcfc,maxcycles=900,Tight) freq IOP(7/33=1,2/16=3) scf=(maxcycle=900) 

Gaussian input prepared by ASE

0 1
O                 0.2274714399       -0.7648133034        1.1466087600
O                 2.4775540148        2.0970989042        0.8500404696
C                -1.1655299898       -0.8610109044        0.8405698595
C                 0.6999021316        0.5188460261        0.9045114096
C                 1.9564743521        0.8456348935        1.0921475223
H                -1.3585740568       -0.6269754438       -0.2458883179
H                -1.4839992821       -1.9226777122        1.0458321524
H                -1.7524617785       -0.1815227011        1.4588715796
H                -0.0410328856        1.2350469274        0.5545117819
H                 2.6921769481        0.1565551604        1.4482147935
H                 1.7148870883        2.6747779519        0.5055965453



