%nprocshared=20
%mem=5GB
#p m062x/cc-pVTZ opt=(calcfc,maxcycles=900,Tight) freq IOP(7/33=1,2/16=3) scf=(maxcycle=900) 

Gaussian input prepared by ASE

0 1
O                 0.2065249446       -0.7212503237        1.0855265594
O                 0.4507357319        2.9013818956        0.4600214599
C                -1.1969053616       -0.8900851218        0.8728179405
C                 0.6536998335        0.5863688574        0.9449923783
C                -0.0540064044        1.6247389275        0.5682809525
H                -1.6495950860       -1.3504982162        1.7977621421
H                -1.7034720813        0.0969939468        0.6734269156
H                -1.3619913698       -1.5583774532        0.0274646832
H                 1.7105366654        0.6644812001        1.1928280958
H                -1.0935615027        1.5745067207        0.3239962561
H                 1.4297108956        2.8556566003        0.7311899801



