%nprocshared=20
%mem=5GB
#p m062x/cc-pVTZ opt=(calcfc,maxcycles=900,Tight) freq IOP(7/33=1,2/16=3) scf=(maxcycle=900) 

Gaussian input prepared by ASE

0 1
O                 0.2182923928       -0.7367882058        1.0982357140
O                 0.4246099679        2.8808832942        0.4448993662
C                -1.1792302016       -0.9261731382        0.8649318015
C                 0.6491405660        0.5754017143        0.9495392949
C                -0.0728490559        1.6029468032        0.5702582695
H                -1.3204513579       -1.6254050032       -0.0088881823
H                -1.6370527296       -1.4024326330        1.7783140525
H                -1.6750300332        0.0216478699        0.6544370901
H                 1.7085807443        0.6672246727        1.1810197969
H                -1.1122625879        1.5374706175        0.3290001741
H                 1.3984551407        2.8491159334        0.7358150830



