%nprocshared=20
%mem=5GB
#p m062x/cc-pVTZ opt=(calcfc,maxcycles=900,Tight) freq IOP(7/33=1,2/16=3) scf=(maxcycle=900) 

Gaussian input prepared by ASE

0 1
O                 0.2099960239       -0.7417588644        0.7025138398
O                -0.8848333628        1.4647982338        2.4646203962
C                -1.2054284423       -0.8629280912        0.8614426569
C                 0.6954597619        0.5463911082        0.8884648204
C                 0.2290383744        1.5027300948        1.6558231800
H                -1.5317515530       -1.7788423895        0.2895648679
H                -1.4834430317       -1.0154225831        1.9431750767
H                -1.7263749705        0.0112028543        0.4702905573
H                 1.6164624046        0.7016649665        0.3298304757
H                 0.7208044786        2.4511709164        1.6945426414
H                -1.2573490078        0.5204092413        2.4065078767



