%nprocshared=20
%mem=5GB
#p m062x/cc-pVTZ opt=(calcfc,maxcycles=900,Tight) freq IOP(7/33=1,2/16=3) scf=(maxcycle=900) 

Gaussian input prepared by ASE

0 1
O                 0.2257033255       -0.7455134149        1.2705455214
O                -0.2049554869        1.0104495403       -1.1833980574
C                -1.0167185841       -1.0155631296        0.6172249874
C                 0.7870422686        0.4860258276        0.9578270456
C                 0.6086518743        1.2447689481       -0.0973780360
H                -0.8508844620       -1.3911027098       -0.4334410145
H                -1.5276380118       -1.8328783454        1.2017323752
H                -1.6551964477       -0.1322402838        0.5932056639
H                 1.4934278434        0.7919994316        1.7271304600
H                 1.1248443368        2.1770016227       -0.1831723956
H                -0.6235416762        0.0942225486       -1.0443684134



