%nprocshared=20
%mem=5GB
#p m062x/cc-pVTZ opt=(calcfc,maxcycles=900,Tight) freq IOP(7/33=1,2/16=3) scf=(maxcycle=900) 

Gaussian input prepared by ASE

0 1
O                 4.0015095225       -1.5947451367        2.6103222713
O                 1.0879318281        0.1602096664        1.2782708164
C                 3.5256564801       -2.4231981803        3.6500850791
C                 3.7681668516       -1.7943715569        5.0222287041
C                 4.1615466949       -3.7700715926        3.5421721237
C                 3.0246925536       -1.0826910996        1.7872036698
C                 2.0195820389       -0.3497984770        2.1701831823
H                 2.4140827737       -2.5423829843        3.5214573691
H                 4.3990745173       -0.8852834997        4.9343294342
H                 2.8215975893       -1.5094497668        5.5165082051
H                 4.2991474606       -2.5099576783        5.7067916564
H                 4.9464390798       -3.9307460280        4.3389239922
H                 4.6512502359       -3.8961582772        2.5540592355
H                 3.4095409008       -4.6008444381        3.6599233231
H                 3.1951560641       -1.2929298871        0.7192717460
H                 1.7887929784       -0.0905178698        3.1928916825
H                 1.3940436772       -0.1000758882        0.3615758476



