%nprocshared=20
%mem=5GB
#p m062x/cc-pVTZ opt=(calcfc,maxcycles=900,Tight) freq IOP(7/33=1,2/16=3) scf=(maxcycle=900) 

Gaussian input prepared by ASE

0 1
O                 0.2483754520       -1.4012888358       -0.5402459916
O                 3.0039508336       -1.3426829954        1.8363481093
C                -0.4955921466       -0.3552630936       -1.1286502905
C                 0.3422815714        0.4216207601       -2.1442444222
C                -1.1562747644        0.5216757039       -0.1164515038
C                 1.2058801294       -0.9538285098        0.3411500654
C                 2.0339306663       -1.7614825364        0.9378738973
H                -1.3056939675       -0.8885302953       -1.6993580453
H                 1.4253062574        0.2328280170       -1.9905346643
H                 0.0959834037        0.1155125579       -3.1772599115
H                 0.1771108767        1.5304378301       -2.0676044394
H                -0.6561512234        1.5296730170       -0.0139637947
H                -1.1609423397        0.0436929277        0.8853394771
H                -2.2303327142        0.7151212223       -0.3967012709
H                 1.2193378477        0.1314080658        0.5304044311
H                 2.0425317499       -2.8317561638        0.7934333078
H                 2.9258748802       -0.3473261400        1.9067155444



