%nprocshared=20
%mem=5GB
#p m062x/cc-pVTZ opt=(calcfc,maxcycles=900,Tight) freq IOP(7/33=1,2/16=3) scf=(maxcycle=900) 

Gaussian input prepared by ASE

0 1
O                 1.7380291617       -0.6804796573        3.7251914589
O                 0.4435073832        1.0733381961        1.6094134498
C                 0.7783911166        0.2460926962        4.1882635441
C                 1.3490386827        1.6633425113        4.2409574428
C                 0.2433463739       -0.2238107586        5.5008897006
C                 1.9640242871       -0.6290851017        2.3686592024
C                 1.4267804772        0.1097137661        1.4415144610
H                -0.0762953359        0.2535620584        3.4562789223
H                 2.1340903448        1.7942209249        3.4671508852
H                 0.5544067994        2.4079693211        4.0523385035
H                 1.8042591319        1.8879303602        5.2434368594
H                 0.8204630162        0.2084902974        6.3707966198
H                 0.3026659772       -1.3303105737        5.5658037507
H                -0.8357237936        0.0772578664        5.6214170283
H                 2.7294908428       -1.3668678890        2.0797400772
H                 1.7340285996       -0.0258079296        0.4150373978
H                 0.2379918396        1.4330500597        0.6982858865



