%nprocshared=20
%mem=5GB
#p m062x/cc-pVTZ opt=(calcfc,maxcycles=900,Tight) freq IOP(7/33=1,2/16=3) scf=(maxcycle=900) 

Gaussian input prepared by ASE

0 1
O                 1.5406613480       -0.7663193301        3.4500807108
O                 1.6559106930        0.4386794443       -0.0135364092
C                 0.6854344440        0.2123014098        4.0021365504
C                -0.7001759467        0.1611105689        3.3583386993
C                 1.2893776484        1.5780175953        3.9902425739
C                 1.7801906054       -0.6290925634        2.1018635512
C                 1.3992794166        0.3605820781        1.3472094448
H                 0.5738334276       -0.1047586806        5.0760845575
H                -0.6776210205       -0.4756708169        2.4493763227
H                -1.4548404700       -0.2569956190        4.0491025467
H                -1.0570558932        1.1812030508        3.0506401909
H                 0.8370436424        2.2279933723        3.1842578926
H                 2.3838843946        1.5341805631        3.8107772924
H                 1.1285313104        2.1036360917        4.9738152615
H                 2.3514660173       -1.4822703469        1.7025280738
H                 0.8394168640        1.2117362115        1.7056969110
H                 2.1448903429       -0.3973457117       -0.2660112408



