%nprocshared=20
%mem=5GB
#p m062x/cc-pVTZ opt=(calcfc,maxcycles=900,Tight) freq IOP(7/33=1,2/16=3) scf=(maxcycle=900) 

Gaussian input prepared by ASE

0 1
O                 1.2143471924       -2.9727833119        0.6359983834
O                 2.7080112904       -2.0885433600        2.9003222073
C                -0.1362071888       -3.0223942147        0.2268298585
C                -0.3429425555       -2.3280391849       -1.1193290886
C                -1.0414108198       -2.5189724964        1.3025819303
C                 1.6194496019       -1.6710526497        0.8238394885
C                 2.3226651596       -1.2752252434        1.8450449496
H                -0.3475890249       -4.1183766970        0.0836994009
H                 0.5498498916       -1.7167462211       -1.3672291064
H                -0.4891803872       -3.0593086391       -1.9350162235
H                -1.2299996501       -1.6383255997       -1.1118979739
H                -1.4889789488       -1.5111437955        1.0563098258
H                -0.5027859666       -2.4047104686        2.2663775241
H                -1.8933792594       -3.2335206540        1.4846046997
H                 1.3366250236       -0.9762682475        0.0169803667
H                 2.6632739230       -0.2562630225        1.9551556334
H                 2.3205842229       -2.9942583127        2.7232250818



