%nprocshared=20
%mem=5GB
#p m062x/cc-pVTZ opt=(calcfc,maxcycles=900,Tight) freq IOP(7/33=1,2/16=3) scf=(maxcycle=900) 

Gaussian input prepared by ASE

0 1
O                 3.9075657458        1.0587149816        2.3948243313
O                 1.3430288432       -0.0716230988        3.2210168357
C                 4.7791609494        0.4399929156        3.3175280031
C                 4.0714083341        0.0914559472        4.6269632047
C                 5.9999914450        1.2652890014        3.5594553308
C                 3.1723086054        0.1246573458        1.7014065420
C                 2.0264295537       -0.3815602131        2.0546161567
H                 5.1237828137       -0.5295988227        2.8620350375
H                 3.6144980441        0.9941238026        5.0837296547
H                 3.2780416190       -0.6579750437        4.4525829726
H                 4.8031029926       -0.3377600177        5.3638668091
H                 5.8290132774        2.0765731763        4.3270947798
H                 6.3683707965        1.7506986981        2.6316899673
H                 6.8256200542        0.6028302359        3.9455218583
H                 3.6196218855       -0.1945651219        0.7465533619
H                 1.5410971214       -1.1198211950        1.4334512408
H                 0.5196965540       -0.6405600608        3.2357604691



