%nprocshared=20
%mem=5GB
#p m062x/cc-pVTZ opt=(calcfc,maxcycles=900,Tight) freq IOP(7/33=1,2/16=3) scf=(maxcycle=900) 

Gaussian input prepared by ASE

0 1
O                 1.8746048682        2.0132043936        1.8707917795
O                 1.2319955964       -0.4135223457        3.3214307844
C                 3.0218895098        2.6590515453        2.3811805214
C                 3.3114321935        2.1810219345        3.8040877761
C                 2.9137024293        4.1458291114        2.2925375044
C                 2.2145130516        0.7375416822        1.4821505136
C                 1.9128166240       -0.3594585648        2.1143069607
H                 3.8915838845        2.3538432451        1.7355600461
H                 2.3602037192        1.9757127546        4.3381518081
H                 3.9037818767        1.2480824125        3.7888653869
H                 3.8948160176        2.9468872977        4.3835218960
H                 2.1443877472        4.5573664326        3.0105053472
H                 2.6543156947        4.4742625065        1.2644691619
H                 3.9089768342        4.6063943105        2.5511301116
H                 2.8304344253        0.6804505668        0.5704936615
H                 2.2194135385       -1.3187458739        1.7241930149
H                 1.0579576291       -1.3815164783        3.5071209703



