%nprocshared=20
%mem=5GB
#p m062x/cc-pVTZ opt=(calcfc,maxcycles=900,Tight) freq IOP(7/33=1,2/16=3) scf=(maxcycle=900) 

Gaussian input prepared by ASE

0 1
O                 1.2246972665        0.9571726066        2.5261044714
O                -0.0034297627        0.4105010345       -0.2194770812
C                 0.6088906429        2.1497832774        2.0875394816
C                 1.3188511313        2.7644793344        0.8812570966
C                 0.5234213498        3.1025975781        3.2342345013
C                 1.5969696621        0.0543513629        1.5564540059
C                 1.0899823373       -0.1931706603        0.3835308411
H                -0.4553827083        1.9184070712        1.8044608791
H                 2.2768485098        2.2362826285        0.6929458577
H                 0.6997868287        2.6771755843       -0.0301283677
H                 1.5459740780        3.8513645073        1.0536697645
H                 1.5256045132        3.5593385150        3.4866280305
H                 0.1417671472        2.5895191585        4.1415189633
H                -0.1775535978        3.9504964762        2.9907942391
H                 2.4467900224       -0.5609890184        1.8924574589
H                 1.5217826050       -0.9444774618       -0.2610692821
H                -0.3682915094        1.0695820490        0.4395151965



