%nprocshared=20
%mem=5GB
#p m062x/cc-pVTZ opt=(calcfc,maxcycles=900,Tight) freq IOP(7/33=1,2/16=3) scf=(maxcycle=900) 

Gaussian input prepared by ASE

0 1
O                 0.3360450036        1.2052219466        0.8399832697
O                 2.2265587474        0.8211909984        3.1598942156
C                 0.3007463898        2.2746704972        1.7613469685
C                -0.4955123402        1.9195770472        3.0170909738
C                -0.2283823041        3.4890605305        1.0718912175
C                 0.8989763006        0.0442109921        1.3185821399
C                 1.7122398659       -0.1516596906        2.3157226009
H                 1.3569915403        2.5028032285        2.0754295195
H                -1.0833937246        0.9904869532        2.8641238692
H                 0.1719538212        1.7627593940        3.8839145816
H                -1.2256863547        2.7285697121        3.2909652451
H                -1.3526805183        3.4632235481        0.9624752871
H                 0.2144995778        3.5996221397        0.0601075157
H                 0.0284044238        4.4172912601        1.6567073159
H                 0.6143944803       -0.8159878030        0.6918381966
H                 2.0490810619       -1.1534557672        2.5379056998
H                 2.7008653586        0.3381321005        3.8970984205



