%nprocshared=20
%mem=5GB
#p m062x/cc-pVTZ opt=(calcfc,maxcycles=900,Tight) freq IOP(7/33=1,2/16=3) scf=(maxcycle=900) 

Gaussian input prepared by ASE

0 1
O                 1.6348876272       -2.9963119501        1.6613907268
O                 2.0467801051        0.1682122353       -0.0495711250
C                 0.9251243015       -3.2227714533        2.8609028672
C                 0.4035798554       -1.9408860990        3.5103439031
C                 1.6971888066       -4.0832777230        3.8061620485
C                 1.9827951404       -1.6888583049        1.4095568774
C                 1.6710417474       -1.1260061420        0.2781598141
H                 0.0210801926       -3.8148950998        2.5471512992
H                 0.8853485385       -1.0497655322        3.0564552258
H                -0.6878423167       -1.8387069588        3.3694784154
H                 0.6146180663       -1.9177237590        4.6137734294
H                 2.0721823231       -3.5058775706        4.7020832485
H                 2.5799157876       -4.5438606190        3.3155186312
H                 1.0481986090       -4.9157511597        4.2003210020
H                 2.5686092692       -1.1766141713        2.1894059039
H                 1.1117181352       -1.6520973715       -0.4813188327
H                 1.6434954857        0.3672514008       -0.9437342122



