%nprocshared=20
%mem=5GB
#p m062x/cc-pVTZ opt=(calcfc,maxcycles=900,Tight) freq IOP(7/33=1,2/16=3) scf=(maxcycle=900) 

Gaussian input prepared by ASE

0 1
O                -0.1020885914       -1.4650890732        1.8802064318
O                 3.0851273008        0.2154980432        1.2875041986
C                -0.9911938587       -0.4631242138        2.3267884559
C                -1.4350879533        0.4316701808        1.1695013895
C                -0.4866350547        0.2902016466        3.5133760512
C                 1.0591231048       -0.9911219143        1.3137812480
C                 1.9077154305       -0.1939164318        1.8955084465
H                -1.8974513426       -1.0427299632        2.6570924949
H                -0.7527444341        0.3067557452        0.3028898470
H                -2.4513767430        0.1646936579        0.8269132225
H                -1.4379752572        1.5185771133        1.4545545836
H                -0.1705582911        1.3433203857        3.2531410215
H                 0.3865710041       -0.2186073374        3.9723957532
H                -1.2774266836        0.3706501961        4.3119611816
H                 1.2546587261       -1.4157326589        0.3161799818
H                 1.7436418634        0.2175625263        2.8804894776
H                 3.5781805178        0.7773879941        1.9530572831



