%nprocshared=20
%mem=5GB
#p m062x/cc-pVTZ opt=(calcfc,maxcycles=900,Tight) freq IOP(7/33=1,2/16=3) scf=(maxcycle=900) 

Gaussian input prepared by ASE

0 1
O                 3.4980838520       -2.7744841653        0.5479653603
O                 1.6257127092       -0.1255308433        2.1876455954
C                 3.0880338450       -3.5747181910       -0.5407778399
C                 1.8805522017       -3.0333611000       -1.3062403870
C                 2.8723572322       -4.9704040413       -0.0553768038
C                 2.7969537484       -1.6067287333        0.7445837442
C                 2.2897770634       -1.3101294665        1.9059849390
H                 3.9573239308       -3.5878968072       -1.2552757621
H                 1.4310412191       -2.1670192673       -0.7774648530
H                 2.1701045348       -2.7005756965       -2.3196008074
H                 1.0822713554       -3.8172658750       -1.4105060776
H                 1.7742129746       -5.2298098824        0.0035610366
H                 3.3006096332       -5.0992620869        0.9605316444
H                 3.3487808749       -5.7339823022       -0.7332634700
H                 2.7485883796       -0.9223298030       -0.1173882073
H                 2.3319742043       -1.9700970641        2.7598496071
H                 1.5736822379        0.3900910156        1.3313689878



