%nprocshared=20
%mem=5GB
#p m062x/cc-pVTZ opt=(calcfc,maxcycles=900,Tight) freq IOP(7/33=1,2/16=3) scf=(maxcycle=900) 

Gaussian input prepared by ASE

0 1
O                 4.6247121905       -1.3032039394        1.9146615566
O                 2.1730603080       -2.2591118930        2.8946878257
C                 5.5186244605       -1.6879884267        0.8915589166
C                 5.0590095009       -2.9777053961        0.2115614479
C                 6.9100004089       -1.7577050027        1.4294084581
C                 3.4140331133       -0.9102199899        1.3914840080
C                 2.2789039528       -1.3386045809        1.8626745016
H                 5.5033695983       -0.8742508798        0.1144201234
H                 4.1527848451       -3.3816861857        0.7093246997
H                 4.8057037712       -2.7988896176       -0.8492623569
H                 5.8465879642       -3.7788553153        0.2341293723
H                 7.2168384113       -2.8042116944        1.7249758013
H                 7.0171639529       -1.1145858996        2.3277337244
H                 7.6531743241       -1.4002214364        0.6616457267
H                 3.4648803810       -0.1838806148        0.5646935765
H                 1.3184900364       -1.0137471747        1.4905246999
H                 3.1110444452       -2.4968703779        3.1504990086



