%nprocshared=20
%mem=5GB
#p m062x/cc-pVTZ opt=(calcfc,maxcycles=900,Tight) freq IOP(7/33=1,2/16=3) scf=(maxcycle=900) 

Gaussian input prepared by ASE

0 1
O                 0.2384211882       -0.7962206195        1.0363610187
O                 2.3520612236       -0.0921916717       -0.6903934052
C                -1.1809700685       -0.8667813841        0.8823596912
C                 0.6759946481        0.5125815975        0.8777754455
C                 1.6576649238        0.8255817539        0.0657862879
H                -1.6635009795       -1.2895514563        1.8101847641
H                -1.6159651177        0.1559548092        0.6939938338
H                -1.4135766593       -1.5301137701        0.0490683379
H                 0.2070673670        1.2652183740        1.5087059153
H                 2.0172144765        1.8261478242       -0.0458593486
H                 1.9642826194       -1.0049589080       -0.4656729869



