%nprocshared=20
%mem=5GB
#p m062x/cc-pVTZ opt=(calcfc,maxcycles=900,Tight) freq IOP(7/33=1,2/16=3) scf=(maxcycle=900) 

Gaussian input prepared by ASE

0 1
O                -0.0788101397       -0.3788614339        1.6322777616
O                 1.0584715587        2.2976742316       -0.6229165773
C                -1.1209899246       -0.8366513358        0.7676064532
C                 0.6254716341        0.6833759552        1.0798086927
C                 0.3838909772        1.2207956931       -0.0922795427
H                -1.7707238336        0.0225697547        0.4329201148
H                -0.6799234148       -1.3361304177       -0.1416089727
H                -1.7221185402       -1.5599423799        1.3189544495
H                 1.4146440545        1.0288241573        1.7448655327
H                -0.3790798686        0.8692034684       -0.7534387414
H                 1.7712294572        2.5694872242        0.0494742430



