%nprocshared=20
%mem=5GB
#p m062x/cc-pVTZ opt=(calcfc,maxcycles=900,Tight) freq IOP(7/33=1,2/16=3) scf=(maxcycle=900) 

Gaussian input prepared by ASE

0 1
O                 0.2131062567       -0.7128782958        1.1062758040
O                 1.8406247740        2.4882262207        1.7503972242
C                -1.1894747804       -0.8393067352        0.8610227628
C                 0.6694573090        0.5845803066        0.9115245474
C                 1.2720178033        1.2402290905        1.8748612190
H                -1.6928876248       -1.1557227810        1.8196083740
H                -1.6399161076        0.1361864436        0.5201307286
H                -1.3656837045       -1.6095977302        0.1099619410
H                 0.5516780794        0.9496870603       -0.1069317755
H                 1.3811561041        0.8305139261        2.8562354623
H                 1.8937671583        2.6973965665        0.7566974740



