%nprocshared=20
%mem=5GB
#p m062x/cc-pVTZ opt=(calcfc,maxcycles=900,Tight) freq IOP(7/33=1,2/16=3) scf=(maxcycle=900) 

Gaussian input prepared by ASE

0 1
O                 0.1898299052       -0.7667976874        1.1475475873
O                 0.0752431010        0.7119923667       -1.3991189854
C                -1.1959834167       -0.8916051031        0.8199635283
C                 0.6729276506        0.5146806154        0.9151404275
C                 0.6396624666        1.1609327228       -0.2260097209
H                -1.6254559406        0.0849801687        0.4535422708
H                -1.3385241051       -1.6731566255        0.0202441525
H                -1.7289481126       -1.2049771527        1.7178704008
H                 1.1531900278        0.9601425211        1.7842433614
H                 1.0268415794        2.1532376946       -0.3170935692
H                 0.0059080577       -0.3003884676       -1.3335961802



