%nprocshared=20
%mem=5GB
#p m062x/cc-pVTZ opt=(calcfc,maxcycles=900,Tight) freq IOP(7/33=1,2/16=3) scf=(maxcycle=900) 

Gaussian input prepared by ASE

0 1
O                 0.1855444394       -0.7462155263        1.1974034747
O                 1.4049434062        0.8137267314        3.2092026666
C                -1.2043475339       -0.8558174975        0.8818809234
C                 0.6611499441        0.5386118666        0.9680541032
C                 1.2761744628        1.2253140623        1.9014119959
H                -1.7588067767       -1.1723985203        1.8118171492
H                -1.6173553106        0.1245708645        0.5091143125
H                -1.3653371779       -1.6180701085        0.1192909604
H                 0.5319142328        0.9378549192       -0.0361028993
H                 1.7218478483        2.1788439575        1.7142514701
H                 0.9220859713       -0.0781761752        3.2825064379



