%nprocshared=20
%mem=5GB
#p m062x/cc-pVTZ opt=(calcfc,maxcycles=900,Tight) freq IOP(7/33=1,2/16=3) scf=(maxcycle=900) 

Gaussian input prepared by ASE

0 1
O                 0.1983117789       -0.7664238487        1.0240191889
O                -0.8460773879        1.5401008082        2.4582389986
C                -1.2181439195       -0.8848547210        0.8723809583
C                 0.6746084266        0.5342409570        0.9191586783
C                 0.2194473204        1.5679957149        1.5863554168
H                -1.4218068622       -1.6004237260        0.0244939464
H                -1.6639023347       -1.3196482365        1.8120328854
H                -1.6926420193        0.0758830811        0.6715711258
H                 1.5617292520        0.6026864531        0.2924529857
H                 0.6489818175        2.5411881048        1.4801962060
H                -1.1015289570        0.5618471243        2.5667736282



