%nprocshared=20
%mem=5GB
#p m062x/cc-pVTZ opt=(calcfc,maxcycles=900,Tight) freq IOP(7/33=1,2/16=3) scf=(maxcycle=900) 

Gaussian input prepared by ASE

0 1
O                 0.2105777457       -0.7335215630        1.1093339956
O                 0.4195924969        2.8619909281        0.3600805758
C                -1.1886259669       -0.8378139209        0.8359865158
C                 0.7078824753        0.5507778269        0.9280986707
C                -0.0276317608        1.5768429581        0.5714739731
H                -1.7810411457       -0.1401486126        1.4953326719
H                -1.4159567546       -0.6067966994       -0.2436631804
H                -1.4940672107       -1.8628412539        1.0469717596
H                 1.7754390916        0.5969192310        1.1345496621
H                -1.0732614483        1.4901337060        0.3665028721
H                 1.3111974868        2.9609433717        0.8388962980



