%nprocshared=20
%mem=5GB
#p m062x/cc-pVTZ opt=(calcfc,maxcycles=900,Tight) freq IOP(7/33=1,2/16=3) scf=(maxcycle=900) 

Gaussian input prepared by ASE

0 1
O                 0.2017095960       -0.7231947225        1.1090427171
O                 0.4574711543        2.8840046066        0.3665316795
C                -1.1871430433       -0.8983840942        0.8196229524
C                 0.6920547208        0.5631172085        0.9231760044
C                -0.0183427980        1.6078536708        0.5698587113
H                -1.6671604808        0.0528208178        0.4491874584
H                -1.3104153585       -1.7005752827        0.0373282871
H                -1.6999179150       -1.2230008572        1.7252586674
H                 1.7594786767        0.5859086992        1.1341613503
H                -1.0651522821        1.5482807558        0.3612584674
H                 1.3467996827        2.9643905596        0.8529968963



