%nprocshared=20
%mem=5GB
#p m062x/cc-pVTZ opt=(calcfc,maxcycles=900,Tight) freq IOP(7/33=1,2/16=3) scf=(maxcycle=900) 

Gaussian input prepared by ASE

0 1
O                 0.1788614830       -0.7715886480        1.0974198234
O                -0.6930566656        1.6577115543        2.6151151609
C                -1.2211138251       -0.9227005141        0.8512468950
C                 0.6290926277        0.5334222229        0.9430770132
C                 0.2720088885        1.5890900399        1.6351959938
H                -1.4795521228       -1.9953210372        1.0860336915
H                -1.8203108532       -0.2379711425        1.5166793252
H                -1.4535086691       -0.7028971589       -0.1909475598
H                 1.4332925045        0.6132281015        0.2141588080
H                 0.7188658815        2.5409296007        1.4423401711
H                -1.1872750986        0.7690485749        2.6086506818



