%nprocshared=20
%mem=5GB
#p m062x/cc-pVTZ opt=(calcfc,maxcycles=900,Tight) freq IOP(7/33=1,2/16=3) scf=(maxcycle=900) 

Gaussian input prepared by ASE

0 1
O                 0.1916193204       -0.7588694005        1.2223380743
O                 1.4015600736        0.8146252676        3.2074076326
C                -1.1967763740       -0.8719691690        0.9015069531
C                 0.6535146960        0.5270249931        0.9719155706
C                 1.2660599243        1.2236874641        1.8995047926
H                -1.5042428263       -1.9395076579        1.0970981988
H                -1.8001943413       -0.1823378948        1.5580030858
H                -1.3915661847       -0.6500566467       -0.1479223785
H                 0.5089989139        0.9091182964       -0.0368203048
H                 1.7114201988        2.1760308146        1.7056763670
H                 0.9222802459       -0.0791437712        3.2814568872



