%nprocshared=20
%mem=5GB
#p m062x/cc-pVTZ opt=(calcfc,maxcycles=900,Tight) freq IOP(7/33=1,2/16=3) scf=(maxcycle=900) 

Gaussian input prepared by ASE

0 1
O                 0.1187851907       -0.6968478944        1.3382147576
O                 1.4439131405        0.8227937728        3.1944130312
C                -1.2075656112       -0.8670381742        0.8330458858
C                 0.6422118148        0.5448700731        1.0009548899
C                 1.2892955909        1.2533454319        1.8955594243
H                -1.6743856296        0.1217720419        0.5559837865
H                -1.2073325220       -1.5363586520       -0.0739831951
H                -1.8024702841       -1.3406083450        1.6142692108
H                 0.5317104090        0.8590632924       -0.0351436721
H                 1.7299965031        2.2090311209        1.7076215099
H                 0.9917353222       -0.0868785153        3.2396577970



