%nprocshared=20
%mem=5GB
#p m062x/cc-pVTZ opt=(calcfc,maxcycles=900,Tight) freq IOP(7/33=1,2/16=3) scf=(maxcycle=900) 

Gaussian input prepared by ASE

0 1
O                 0.1999545935       -0.7881379050        1.0903077407
O                -0.6980179451        1.6077368780        2.6140337567
C                -1.1953846282       -0.9326665262        0.8155229086
C                 0.6405761828        0.5203056554        0.9373004721
C                 0.2615583502        1.5698401857        1.6270792571
H                -1.4119761100       -0.7061581807       -0.2680877592
H                -1.4669067556       -2.0026783923        1.0436501776
H                -1.8065085151       -0.2765450997        1.4356216334
H                 1.4452262723        0.6182464012        0.2110952574
H                 0.6897647270        2.5347908661        1.4586079735
H                -1.2298101183        0.7435767615        2.5474010503



