%nprocshared=20
%mem=5GB
#p m062x/cc-pVTZ opt=(calcfc,maxcycles=900,Tight) freq IOP(7/33=1,2/16=3) scf=(maxcycle=900) 

Gaussian input prepared by ASE

0 1
O                 0.2254740110       -0.7434609991        1.0880335514
O                 2.1235287427        2.1079357333       -0.1843498991
C                -1.1802136635       -0.8616903139        0.8568826034
C                 0.6539310885        0.5549437895        0.8427730821
C                 1.6511600738        0.8335461777        0.0372378066
H                -1.6363359112        0.1463302294        0.6371621914
H                -1.3523684553       -1.5301562380       -0.0343007369
H                -1.6644253173       -1.3052574112        1.7270995100
H                 0.1329917935        1.3282258000        1.4040977237
H                 2.1730922580        0.0894952267       -0.5256547831
H                 1.5910957736        2.7301861144        0.4184229741



