%nprocshared=20
%mem=5GB
#p m062x/cc-pVTZ opt=(calcfc,maxcycles=900,Tight) freq IOP(7/33=1,2/16=3) scf=(maxcycle=900) 

Gaussian input prepared by ASE

0 1
C                 1.4880383031       -1.0342330362        0.5307011747
C                 0.1927672285       -0.4159579584        0.9331590251
C                -0.5759642569       -1.2064898173        1.9622816093
C                 2.2124069714       -0.3368950277       -0.5711317320
C                 0.0033112190       -2.5528696244        2.3275268395
C                 1.4765394916       -0.2257923867       -1.8422503241
C                -0.0236431065       -3.5823728829        1.2278348939
H                 3.1796307166       -0.8876249347       -0.7452309457
H                 2.5167611070        0.6776103470       -0.2191338274
H                 1.2931957325       -2.0849217441        0.2279370556
H                 2.1599293635       -1.0964182136        1.4112346985
H                -0.4275401500       -0.2747536272        0.0342901120
H                 0.3832814137        0.6085400227        1.3170388656
H                -1.6127686244       -1.3493402394        1.6133489506
H                -0.6449003220       -0.6131262856        2.8973282917
H                 1.0601694128       -2.4193109059        2.6778597768
H                -0.5396708344       -2.9427456960        3.2052667260
H                 0.4574069016       -0.6517779087       -1.7807341562
H                 1.3660888949        0.8553756762       -2.1527534892
H                 2.0049237674       -0.7464283579       -2.6688339815
H                -0.0789344993       -3.1334708947        0.2353592585
H                -0.9059540184       -4.2707770689        1.3439671950
H                 0.9054740853       -4.2211951586        1.2508879633



