%nprocshared=20
%mem=5GB
#p m062x/cc-pVTZ opt=(calcfc,maxcycles=900,Tight) freq IOP(7/33=1,2/16=3) scf=(maxcycle=900) 

Gaussian input prepared by ASE

0 1
C                 1.3896121806       -1.1450251425        0.5305059969
C                 0.1588927478       -0.4056353843        0.9312503210
C                 0.0791873940       -0.0637206516        2.3981257016
C                 2.1518937725       -0.5113780857       -0.5841438144
C                -1.1817389967        0.6994190555        2.7288599827
C                 3.5391552880       -0.1167159056       -0.2852550869
C                -1.2901718501        1.0842333188        4.1814735476
H                 1.5849032198        0.3942710748       -0.9411550904
H                 2.1540749769       -1.2042829798       -1.4591484830
H                 1.0965309710       -2.1714851108        0.2238142329
H                 2.0456970432       -1.2975596661        1.4119421841
H                -0.7328071755       -0.9925181480        0.6608337931
H                 0.0736088683        0.5354860536        0.3479214266
H                 0.9613394323        0.5295012395        2.6931157171
H                 0.1214631820       -0.9952668494        2.9994402608
H                -1.2222363153        1.6216906780        2.0922318639
H                -2.0598551507        0.0952462105        2.4439962198
H                 3.8332062900       -0.3229237733        0.7611155279
H                 4.2688726330       -0.6606496759       -0.9554674262
H                 3.6970352361        0.9683329837       -0.4619897178
H                -0.3146434898        1.3133507412        4.6120866513
H                -1.7430496643        0.2536263444        4.7904508210
H                -1.9453459145        1.9931705347        4.3097863799



