%nprocshared=20
%mem=5GB
#p m062x/cc-pVTZ opt=(calcfc,maxcycles=900,Tight) freq IOP(7/33=1,2/16=3) scf=(maxcycle=900) 

Gaussian input prepared by ASE

0 1
C                 1.3703056219       -1.1553571026        0.5117786706
C                 0.1328659806       -0.4476774297        0.9475494414
C                -1.1399402964       -1.2180900007        0.6997376949
C                 2.1497914084       -0.4820790991       -0.5671674164
C                -2.3584122030       -0.4586280626        1.1690419859
C                 1.4575888495       -0.3037173818       -1.8550454911
C                -2.5083589666        0.8679342199        0.4707051412
H                 3.0879106149       -1.0842614664       -0.7297850377
H                 2.5070549215        0.5053308619       -0.1888296426
H                 1.1219144823       -2.1871197504        0.1841444532
H                 2.0454409172       -1.2870796586        1.3821150316
H                 0.0492770108        0.5338261666        0.4552600909
H                 0.2005678124       -0.2299760575        2.0344156128
H                -1.0945711501       -2.1977199647        1.2050992627
H                -1.2323474860       -1.4366173137       -0.3841679674
H                -3.2771775586       -1.0802466032        1.0047831922
H                -2.2866716865       -0.2914259083        2.2572317249
H                 0.4289982995       -0.7109294169       -1.8473657158
H                 1.3894137010        0.7903742964       -2.1304569630
H                 2.0062472063       -0.8044598698       -2.6807108398
H                -2.1664857230        0.8195374374       -0.5638761542
H                -1.9016177949        1.6653054238        0.9824901487
H                -3.5830062213        1.2100001987        0.4678338964



