%nprocshared=20
%mem=5GB
#p m062x/cc-pVTZ opt=(calcfc,maxcycles=900,Tight) freq IOP(7/33=1,2/16=3) scf=(maxcycle=900) 

Gaussian input prepared by ASE

0 1
C                 1.3893633140       -1.1053781926        0.4901926710
C                 0.1496754099       -0.3785871492        0.8863141545
C                 0.3576576909        0.9472649914        1.5746756017
C                 2.1776103107       -0.5437449993       -0.6448231212
C                 1.2182038552        0.8845960834        2.8145286766
C                 2.7481416188        0.7990159297       -0.4421550819
C                 2.5393048760        1.6019478422        2.7144066663
H                 1.5419221981       -0.5488822007       -1.5748822444
H                 3.0005149547       -1.2643867288       -0.8667658267
H                 1.1064679173       -2.1450078233        0.2205319111
H                 2.0454298802       -1.1916877645        1.3805696690
H                -0.4203980488       -1.0280586105        1.5688742637
H                -0.5115114482       -0.2242671581        0.0075236340
H                -0.6357590670        1.3377740824        1.8535112794
H                 0.7767313861        1.6759846584        0.8504590285
H                 0.6473765856        1.3200269327        3.6759673243
H                 1.4150271118       -0.1654455587        3.0900886983
H                 2.5555025734        1.1911664843        0.5742047366
H                 3.8699303930        0.7903300999       -0.5801783853
H                 2.3408142656        1.5333221225       -1.1690465061
H                 2.4677945484        2.5195448036        2.1291886646
H                 3.3194936997        0.9426118543        2.2427701173
H                 2.9082745692        1.8741038560        3.7447835729



