%nprocshared=20
%mem=5GB
#p m062x/cc-pVTZ opt=(calcfc,maxcycles=900,Tight) freq IOP(7/33=1,2/16=3) scf=(maxcycle=900) 

Gaussian input prepared by ASE

0 1
C                 1.3839268921       -1.1570883549        0.5188912614
C                 0.1605454289       -0.4223311814        0.9495108633
C                -0.6575006761       -1.1743318010        1.9694508852
C                 2.1350557854       -0.4885084442       -0.5828493200
C                -2.0622196322       -1.4768327296        1.5036606078
C                 3.3640377813       -1.1756664378       -1.0152893340
C                -2.3720657339       -2.9502833369        1.4501389191
H                 2.3890204075        0.5629864035       -0.2682125517
H                 1.4513586070       -0.3701633437       -1.4570962676
H                 1.0923593273       -2.1815505784        0.2041818592
H                 2.0524194017       -1.2917684439        1.3938900718
H                -0.4583818073       -0.1978255036        0.0667812858
H                 0.4452435145        0.5681076327        1.3633145071
H                -0.6994849375       -0.6007472450        2.9109186854
H                -0.1434214702       -2.1191602800        2.2417861109
H                -2.8014647849       -0.9608439231        2.1705882619
H                -2.2157913687       -1.0382474146        0.5030014185
H                 3.5810788305       -2.0881381363       -0.4286312373
H                 3.2958226707       -1.4813414286       -2.1013120910
H                 4.2515358754       -0.5136021942       -0.9286269417
H                -1.8834316979       -3.4954896370        2.2585725214
H                -2.0262106650       -3.4004422924        0.4787477692
H                -3.4809315516       -3.1406220450        1.5280611537



