%nprocshared=20
%mem=5GB
#p m062x/cc-pVTZ opt=(calcfc,maxcycles=900,Tight) freq IOP(7/33=1,2/16=3) scf=(maxcycle=900) 

Gaussian input prepared by ASE

0 1
C                 1.3617299110       -1.1573241979        0.5053811669
C                 0.1352452425       -0.4285259090        0.9372977816
C                -0.6502509438       -1.1315531763        2.0160611536
C                 2.1466526051       -0.4833428122       -0.5691752421
C                -0.7344601327       -0.2983544258        3.2731973414
C                 1.4562994864       -0.3036755673       -1.8578642940
C                 0.6184899892        0.0310534561        3.8484731753
H                 3.0835937299       -1.0883394998       -0.7280968471
H                 2.5002119082        0.5028664949       -0.1842828652
H                 1.0930992715       -2.1846365073        0.1797379595
H                 2.0251181444       -1.2891974260        1.3846816749
H                -0.5085069806       -0.2289768374        0.0664083091
H                 0.4449193272        0.5688796335        1.3148420108
H                -0.2073671149       -2.1148812669        2.2485333460
H                -1.6791639432       -1.3500900039        1.6628976582
H                -1.2685367625        0.6552397144        3.0223174711
H                -1.3530751232       -0.8045525655        4.0336834405
H                 0.4275936446       -0.7105689287       -1.8488518796
H                 1.3886240977        0.7907384252       -2.1321159754
H                 2.0049133529       -0.8044601070       -2.6835337014
H                 1.3648754773        0.1418989030        3.0609453916
H                 0.9814781412       -0.7756746039        4.5436630908
H                 0.5931211287        0.9968865053        4.4302008109



