%nprocshared=20
%mem=5GB
#p m062x/cc-pVTZ opt=(calcfc,maxcycles=900,Tight) freq IOP(7/33=1,2/16=3) scf=(maxcycle=900) 

Gaussian input prepared by ASE

0 1
C                 1.3859349611       -1.1557087243        0.5139561217
C                 0.1622438891       -0.4069673542        0.9188389084
C                -0.6297991587       -1.0823009745        2.0104314706
C                 2.1535025354       -0.5222925332       -0.5971919188
C                -0.7230239667       -0.2919553976        3.2943184377
C                 2.6422277216        0.8395392938       -0.3212408590
C                -0.1185041897       -0.9713670536        4.4955184672
H                 1.5091579793       -0.5126799645       -1.5212392290
H                 3.0120432888       -1.1870034744       -0.8556919369
H                 1.0974513465       -2.1824243523        0.2037808113
H                 2.0470280342       -1.2823231005        1.3957546409
H                -0.4843016485       -0.2699794098        0.0379879557
H                 0.4526478752        0.6174707097        1.2341921677
H                -0.2003417255       -2.0774671925        2.2161838743
H                -1.6549226636       -1.2819062128        1.6356991548
H                -0.2296359275        0.7056195707        3.1567220522
H                -1.7814914313       -0.0674624503        3.5099795443
H                 2.3210701890        1.2018230373        0.6734889880
H                 3.7712613212        0.8858794860       -0.3471570222
H                 2.2709866937        1.5678139788       -1.0730974825
H                 0.7612057285       -1.5604178072        4.2333969506
H                -0.8647862024       -1.6583268050        4.9823542070
H                 0.1901084764       -0.2051449049        5.2633374181



