%nprocshared=20
%mem=5GB
#p m062x/cc-pVTZ opt=(calcfc,maxcycles=900,Tight) freq IOP(7/33=1,2/16=3) scf=(maxcycle=900) 

Gaussian input prepared by ASE

0 1
C                 1.3812198392       -1.1547486170        0.5152224500
C                 0.1597121640       -0.4060273709        0.9266821018
C                 0.0913461354       -0.0974536161        2.4015008479
C                 2.1382808274       -0.4951937019       -0.5878967612
C                -1.1095514271       -0.7059584687        3.0865334228
C                 3.3686979326       -1.1798839311       -1.0201701207
C                -0.7455166750       -1.6635646496        4.1912483052
H                 2.3911812391        0.5550984407       -0.2684229171
H                 1.4543621638       -0.3759410464       -1.4618470948
H                 1.0911585974       -2.1812031968        0.2056550557
H                 2.0506219170       -1.2915553071        1.3891953716
H                -0.7311187770       -0.9824963645        0.6320824343
H                 0.0810975407        0.5441007703        0.3571807794
H                 0.0845943935        0.9951058101        2.5544448056
H                 1.0216216037       -0.4448663199        2.8965126926
H                -1.7659455077        0.1069186884        3.4938390556
H                -1.7262411519       -1.2332112355        2.3388981687
H                 3.5876357462       -2.0917956263       -0.4333460979
H                 3.3026113405       -1.4864305532       -2.1060788005
H                 4.2549378175       -0.5164528499       -0.9311175136
H                 0.1476079360       -1.3403628536        4.7273891901
H                -0.5457375980       -2.6925551696        3.7824373340
H                -1.5824518997       -1.7597668960        4.9410273776



