%nprocshared=20
%mem=5GB
#p m062x/cc-pVTZ opt=(calcfc,maxcycles=900,Tight) freq IOP(7/33=1,2/16=3) scf=(maxcycle=900) 

Gaussian input prepared by ASE

0 1
C                 1.3730542391       -1.1451767854        0.5191128472
C                 0.1430052353       -0.4249117404        0.9551876840
C                -0.6724770859       -1.1483709233        1.9975779201
C                 2.1610931698       -0.4949269711       -0.5677154936
C                -1.8859294509       -0.3406840755        2.3936562630
C                 1.6315543005        0.7612300317       -1.1256092024
C                -1.5336448268        1.0186104649        2.9396780265
H                 2.2885361615       -1.2348728230       -1.4075810544
H                 3.1983762958       -0.3202658836       -0.1944966020
H                 1.0923222487       -2.1710148071        0.1990778446
H                 2.0273109058       -1.2949590941        1.4023780136
H                -0.5020964000       -0.2212206309        0.0862578583
H                 0.4181011912        0.5673613954        1.3710863965
H                -0.0542652237       -1.3663123710        2.8849556068
H                -1.0004463725       -2.1340271215        1.6076256589
H                -2.5316568333       -0.2132818352        1.4857327217
H                -2.4922605314       -0.8950148157        3.1300937833
H                 0.6756583417        1.0622647716       -0.6570794367
H                 2.3612376820        1.6120734186       -0.9801319748
H                 1.4514613968        0.6809458316       -2.2185928680
H                -0.6356916054        1.4086296341        2.4589046080
H                -1.3343688906        0.9738671897        4.0460896680
H                -2.3698512231        1.7555206815        2.7676132265



