%nprocshared=20
%mem=5GB
#p m062x/cc-pVTZ opt=(calcfc,maxcycles=900,Tight) freq IOP(7/33=1,2/16=3) scf=(maxcycle=900) 

Gaussian input prepared by ASE

0 1
C                 1.2635240691       -1.0956665277        0.1868333794
C                 0.7016887330        0.0683764184        0.9293349786
C                 0.0054425897        1.1357877037        0.1225782210
C                 2.5200606313       -0.8548931040       -0.5800890719
C                 0.3968302177        1.2757468610       -1.3296372930
C                 3.2601824778        0.3759850175       -0.2533691268
C                -0.0418177252        0.1424474011       -2.2202248442
H                 2.2623255196       -0.8501898274       -1.6767595928
H                 3.1867907075       -1.7391355460       -0.4410156049
H                 0.4950924361       -1.5060220019       -0.5021497192
H                 1.4457053469       -1.8997218773        0.9290926716
H                 1.5155269810        0.5397596613        1.5021790886
H                -0.0179140939       -0.3117821345        1.6849186908
H                 0.1832376842        2.1063690974        0.6160194053
H                -1.0903994532        0.9710505490        0.1785839962
H                -0.0510193954        2.2278520529       -1.7175119733
H                 1.4906527015        1.3962658934       -1.4089323546
H                 3.0547845822        1.1616627251       -1.0046356469
H                 2.9433242235        0.7980411639        0.7461334424
H                 4.3583745678        0.2129254967       -0.2237376185
H                -0.9616805151       -0.3204507757       -1.8608423936
H                 0.7571818127       -0.6478488285       -2.2739946114
H                -0.2244696259        0.5142404884       -3.2691730237



