%nprocshared=20
%mem=5GB
#p m062x/cc-pVTZ opt=(calcfc,maxcycles=900,Tight) freq IOP(7/33=1,2/16=3) scf=(maxcycle=900) 

Gaussian input prepared by ASE

0 1
C                 1.3806567971       -1.1843900033        0.4410521367
C                 0.1559950233       -0.4773143867        0.9124449264
C                -0.8916032040       -0.1848285052       -0.1325297017
C                 2.1988264250       -0.5071978993       -0.6063424090
C                -2.1375498516        0.5018486888        0.3752046012
C                 1.5663118443       -0.3533949130       -1.9276512929
C                -2.1631749345        0.8092421663        1.8499176157
H                 3.1533412733       -1.0946710723       -0.7199752179
H                 2.5366210569        0.4852236266       -0.2232635379
H                 1.1155522858       -2.2051456837        0.0926932141
H                 2.0274473299       -1.3466436568        1.3276070637
H                 0.4535061357        0.4701348023        1.3883781173
H                -0.2940930026       -1.1004657836        1.7139176992
H                -1.1831009443       -1.1240956577       -0.6324595205
H                -0.4355024108        0.4516484714       -0.9186682929
H                -2.2768304249        1.4665319267       -0.1793289979
H                -3.0184163261       -0.1151208486        0.1288653756
H                 0.5677048259       -0.8273845625       -1.9723388193
H                 1.4278216560        0.7378694882       -2.1874558433
H                 2.1904601241       -0.8060480944       -2.7270487674
H                -1.1854505391        1.1308648751        2.2107387071
H                -2.4843565287       -0.0934158481        2.4397569774
H                -2.9055671963        1.6328263718        2.0559440362



