%nprocshared=20
%mem=5GB
#p m062x/cc-pVTZ opt=(calcfc,maxcycles=900,Tight) freq IOP(7/33=1,2/16=3) scf=(maxcycle=900) 

Gaussian input prepared by ASE

0 1
O                 0.4590780308       -0.8932250473       -0.2811256316
O                 1.5276502679       -0.1609264006       -0.4198315293
C                -0.6200964035       -0.0733266848       -0.0235222437
H                -0.5515855208        0.3738428500        0.9872682668
H                -1.5322607548       -0.6896474113       -0.0724178297
H                -0.6937966707        0.7362153435       -0.7714996665
H                 1.8945484678       -0.0874594138        0.4994358055



