%nprocshared=20
%mem=5GB
#p m062x/cc-pVTZ opt=(calcfc,maxcycles=900,Tight) freq IOP(7/33=1,2/16=3) scf=(maxcycle=900) 

Gaussian input prepared by ASE

0 1
O                 2.5185302183        1.2172363995       -0.9471566364
O                 0.0530616919        0.4883117784        0.4458590486
C                 2.4968045746        0.7634494657       -2.2841243529
C                 3.2530682616        1.7416409887       -3.1831343140
C                 1.0936213180        0.5157444916       -2.7311014823
C                 2.3761226068        0.1900594036       -0.0424343301
C                 1.2938216638       -0.1075078413        0.6164514367
H                 3.0583329030       -0.2114730427       -2.3077516430
H                 3.6921187246        2.5731809232       -2.5932293317
H                 4.0722550992        1.2187696663       -3.7094655076
H                 2.5840410330        2.1996752687       -3.9611044329
H                 0.6638230017        1.3821689472       -3.3152829096
H                 0.4399823548        0.3617921094       -1.8472863094
H                 0.9963693728       -0.3988572239       -3.3819527258
H                 3.3046586714       -0.3677077513        0.1586957955
H                 1.2608574682       -0.8866668580        1.3636109167
H                 0.1473745032        1.1176392860       -0.3266917147



