%nprocshared=20
%mem=5GB
#p m062x/cc-pVTZ opt=(calcfc,maxcycles=900,Tight) freq IOP(7/33=1,2/16=3) scf=(maxcycle=900) 

Gaussian input prepared by ASE

0 1
O                 0.1111106017        0.8861026435        1.2736232202
O                 3.1200002880       -1.1119683848        1.7460556000
C                 0.2579746869        2.1633859422        1.8574515984
C                -0.3289929252        3.2284548905        0.9311096056
C                 1.6456038488        2.5411747892        2.2597331617
C                 1.2285379310        0.0995486676        1.1105773165
C                 2.0103604061       -0.3390896552        2.0541885126
H                -0.3798680106        2.1416016477        2.7842894201
H                -0.5460589471        2.8221874263       -0.0788611611
H                -1.2662464357        3.6546291269        1.3328774457
H                 0.4030716755        4.0731958781        0.8165477259
H                 2.0628276397        3.3251747920        1.5611959945
H                 2.3316046197        1.6688268643        2.2376757295
H                 1.6652769300        2.9645933548        3.3037117382
H                 1.4262310710       -0.1992964552        0.0687780245
H                 1.9011746118       -0.1197573680        3.1060414063
H                 3.5868782079       -1.3137336754        2.6080871977



