%nprocshared=20
%mem=5GB
#p m062x/cc-pVTZ opt=(calcfc,maxcycles=900,Tight) freq IOP(7/33=1,2/16=3) scf=(maxcycle=900) 

Gaussian input prepared by ASE

0 1
O                 0.6487149031        0.8124063722        2.5608433807
O                 1.9777409150       -0.8661857193       -0.4240422272
C                 0.3597032154        2.1300123881        2.1433941129
C                 1.6632587092        2.9251710760        2.0693801575
C                -0.6767312881        2.7109461987        3.0480426566
C                 1.4280048824        0.0912183142        1.6853493069
C                 1.2449570132       -0.0271507743        0.4021757854
H                -0.0690336189        2.0821827511        1.1040465951
H                 2.4778914286        2.2945954680        2.4828530043
H                 1.9340229557        3.1863557609        1.0301711780
H                 1.6160651142        3.8754892143        2.6671247022
H                -0.2229106812        3.3982162177        3.8216010887
H                -1.2115850777        1.8951994290        3.5777247512
H                -1.4495228901        3.3010094886        2.4786745562
H                 2.2231224569       -0.4734660312        2.1978494365
H                 0.4878290385        0.5124230808       -0.1474058599
H                 2.5357261526       -1.4509334497        0.1663011190



