%nprocshared=20
%mem=5GB
#p m062x/cc-pVTZ opt=(calcfc,maxcycles=900,Tight) freq IOP(7/33=1,2/16=3) scf=(maxcycle=900) 

Gaussian input prepared by ASE

0 1
O                 0.3861403813       -1.0790242567        2.5338692626
O                 0.1060445418        0.5512166432       -0.1174853131
C                -0.8597745381       -0.4145754038        2.5428690188
C                -0.6947078404        1.0977410920        2.3923229067
C                -1.5676795055       -0.8118716660        3.7963026218
C                 1.2083158141       -0.9428609859        1.4387062238
C                 1.1315372027       -0.2698176345        0.3273243174
H                -1.4732459284       -0.7923914010        1.6784303944
H                 0.3802352795        1.3272849212        2.2373429742
H                -1.2630249391        1.4797353126        1.5248080016
H                -1.0322699079        1.6679935328        3.2997887983
H                -1.1793261301       -0.2627287885        4.7042176101
H                -1.4655840975       -1.8980078260        4.0011422171
H                -2.6723721974       -0.5984228557        3.7358440264
H                 2.1293789476       -1.5239559572        1.6051636910
H                 1.9661669950       -0.3254727184       -0.3558435401
H                 0.3743503636        0.8574100339       -1.0318377033



