%nprocshared=20
%mem=5GB
#p m062x/cc-pVTZ opt=(calcfc,maxcycles=900,Tight) freq IOP(7/33=1,2/16=3) scf=(maxcycle=900) 

Gaussian input prepared by ASE

0 1
O                -0.1119100261       -0.3559469688       -0.3797713291
O                 1.6798319247        1.4273447907        1.5619589627
C                -1.1322299850        0.5514675685       -0.0200168310
C                -1.4089858203        1.4631236719       -1.2155508903
C                -0.9691201698        1.3045440773        1.2591784317
C                 0.9802881170       -0.6099007068        0.4180417288
C                 1.7390774066        0.0860003487        1.2142908009
H                -2.0533458802       -0.0825102236        0.1063314053
H                -0.6997439911        1.2417110657       -2.0402716585
H                -2.4359328796        1.3035991362       -1.5916063114
H                -1.3063182257        2.5515644962       -0.9559622212
H                -0.3643764580        2.2485581161        1.1184360873
H                -0.4859695601        0.6848902872        2.0431868237
H                -1.9683361029        1.6298020739        1.6657941407
H                 1.3369776027       -1.6299287558        0.2034441053
H                 2.5878898613       -0.4305086402        1.6375620865
H                 2.3092370583        1.5488189978        2.3306434850



