%nprocshared=20
%mem=5GB
#p m062x/cc-pVTZ opt=(calcfc,maxcycles=900,Tight) freq IOP(7/33=1,2/16=3) scf=(maxcycle=900) 

Gaussian input prepared by ASE

0 1
O                 2.9473771113        1.8286503990        0.5645708447
O                 0.5432861353        0.3942887003        2.3834772984
C                 2.3883816386        3.0680595172        0.9457090860
C                 0.9634712525        3.0844713806        1.4992191332
C                 2.4749193292        3.9919264638       -0.2243552939
C                 2.5264704608        0.5670254733        0.9181738686
C                 1.6041097319       -0.0431591980        1.6044518026
H                 3.0570387635        3.4818008871        1.7507320286
H                 0.6850102887        2.1641569705        2.0539197175
H                 0.8705381844        3.9687546708        2.1556431787
H                 0.2335430007        3.1957487120        0.6521934885
H                 1.4986747899        4.0596008698       -0.7892027460
H                 3.2448685183        3.6462909886       -0.9453191310
H                 2.7352797530        5.0413686428        0.0925755230
H                 3.2311846047       -0.1332895906        0.4420714251
H                 1.6405638058       -1.1207709794        1.5424304426
H                 0.9270878143        0.7516961137        3.2359671295



