%nprocshared=20
%mem=5GB
#p m062x/cc-pVTZ opt=(calcfc,maxcycles=900,Tight) freq IOP(7/33=1,2/16=3) scf=(maxcycle=900) 

Gaussian input prepared by ASE

0 1
O                 0.0710172814        0.8833096772        1.2698020315
O                 3.0951325731       -1.0880336235        1.7426676900
C                 0.2135240503        2.1556976789        1.8652832269
C                -0.5513343785        2.2374912235        3.1863864515
C                -0.2391109312        3.2410434528        0.9448400268
C                 1.2264463784        0.1493777021        1.1275964848
C                 2.0052127624       -0.2955667604        2.0707822536
H                 1.3037197705        2.3198351559        2.0908456136
H                -1.2017417268        1.3502828289        3.3348566701
H                 0.1258391206        2.3219540890        4.0557471916
H                -1.2111248945        3.1470514569        3.1837412955
H                -1.2183065100        3.6782652800        1.3007880038
H                -0.3864792677        2.8995859454       -0.1009916202
H                 0.5054761999        4.0865426177        0.9280249649
H                 1.4233015330       -0.1776350241        0.0941326610
H                 1.9011332571       -0.0959498305        3.1270697324
H                 3.5747137327       -1.3040085734        2.5942188818



