%nprocshared=20
%mem=5GB
#p m062x/cc-pVTZ opt=(calcfc,maxcycles=900,Tight) freq IOP(7/33=1,2/16=3) scf=(maxcycle=900) 

Gaussian input prepared by ASE

0 1
O                 0.8024330306       -2.5299528692        0.0407901907
O                 0.2324907567        0.3639498403       -0.4507871469
C                -0.5888249188       -2.5469777562        0.2815986864
C                -1.1087452132       -1.4715197718        1.2355826178
C                -0.9442557011       -3.9160406222        0.7605615117
C                 1.5305445325       -1.4365344698        0.4508935981
C                 1.2906372155       -0.1702284483        0.2693293143
H                -1.0870905396       -2.3758405441       -0.7127803338
H                -0.2859635660       -0.8925099782        1.7046134058
H                -1.7650551625       -0.7574321426        0.7056560869
H                -1.6999177876       -1.9361679870        2.0705960089
H                -1.1358720209       -3.9335323966        1.8739630986
H                -0.1026052115       -4.6126736473        0.5645988326
H                -1.8699713769       -4.3321292903        0.2711922361
H                 2.4351327865       -1.7502103438        0.9959296397
H                 1.9508905181        0.5561462392        0.7197381172
H                 0.2457456382        1.3510429885       -0.2856989132



