%nprocshared=20
%mem=5GB
#p m062x/cc-pVTZ opt=(calcfc,maxcycles=900,Tight) freq IOP(7/33=1,2/16=3) scf=(maxcycle=900) 

Gaussian input prepared by ASE

0 1
O                 3.9031979847       -1.3272119541        2.8411814707
O                 1.4543722442        0.2448241407        3.0333257785
C                 3.5014013556       -2.3263240594        3.7545333908
C                 2.5007452501       -1.8178321120        4.7923848387
C                 4.7221595322       -2.8533721963        4.4342681153
C                 3.0194758645       -1.0943755351        1.8122415422
C                 1.9471202178       -0.3605264104        1.8868798640
H                 3.0256319303       -3.1630345837        3.1715195296
H                 2.7458676053       -0.7721262922        5.0727885290
H                 1.4535943003       -1.8488256929        4.4402480666
H                 2.5639820199       -2.4462747355        5.7217347835
H                 4.8476754493       -2.4021387691        5.4625287918
H                 5.6235254545       -2.6016431060        3.8374042873
H                 4.6851376887       -3.9726065418        4.5587889689
H                 3.3423244447       -1.5212553614        0.8492881902
H                 1.3264064691       -0.1769798840        1.0223292207
H                 2.0670127586       -0.0091869140        3.7829474725



