%nprocshared=20
%mem=5GB
#p m062x/cc-pVTZ opt=(calcfc,maxcycles=900,Tight) freq IOP(7/33=1,2/16=3) scf=(maxcycle=900) 

Gaussian input prepared by ASE

0 1
O                 4.1135966322        0.8220841407        2.1988944875
O                 1.3920575344       -0.0057997051        3.2877759208
C                 4.8160584298        0.2829645830        3.2987921125
C                 3.9098296921        0.0296283682        4.5036085164
C                 5.9545283188        1.1789702938        3.6609103776
C                 3.1481851870        0.0239023320        1.6289984428
C                 1.9736291036       -0.3233098424        2.0693548472
H                 5.2480755538       -0.7040892117        2.9740888311
H                 3.0554519822        0.7381584892        4.4882574133
H                 3.5382425975       -1.0112315752        4.5080390442
H                 4.4613887008        0.2031919019        5.4670859161
H                 5.7638195913        1.7748334841        4.6017945946
H                 6.1806505355        1.9021093905        2.8497303237
H                 6.8932302672        0.5876350859        3.8576917387
H                 3.3755587189       -0.2506937537        0.5865805723
H                 1.3191030445       -0.8460888117        1.3876507419
H                 1.6415638957       -0.7203245338        3.9427442749



