%nprocshared=20
%mem=5GB
#p m062x/cc-pVTZ opt=(calcfc,maxcycles=900,Tight) freq IOP(7/33=1,2/16=3) scf=(maxcycle=900) 

Gaussian input prepared by ASE

0 1
O                 3.4878681968        0.2143600342        3.0400663571
O                 1.3950144365       -1.5472032275        0.6808318519
C                 4.7300812957        0.8726443497        2.9079844252
C                 5.2874915694        0.8445261061        1.4847783680
C                 5.6607784448        0.3008432400        3.9262750849
C                 2.8085575497       -0.0873246839        1.8818702012
C                 2.1688100056       -1.2165112048        1.7833159985
H                 4.5631623256        1.9515537171        3.1808192551
H                 4.6259184332        0.2110423453        0.8576968978
H                 5.3047575815        1.8546632718        1.0366591748
H                 6.3286580563        0.4258086680        1.4275211121
H                 6.3555022185       -0.4766670676        3.4909332999
H                 5.0896183458       -0.2029607504        4.7337601749
H                 6.3056492116        1.0815092403        4.4205056689
H                 2.7842045599        0.6749114928        1.0867980706
H                 2.2157330232       -1.9471634720        2.5772732989
H                 0.9270102363       -2.4028469192        0.9058399437



