%nprocshared=20
%mem=5GB
#p m062x/cc-pVTZ opt=(calcfc,maxcycles=900,Tight) freq IOP(7/33=1,2/16=3) scf=(maxcycle=900) 

Gaussian input prepared by ASE

0 1
O                 0.3651275441       -1.0773449551        2.5029898463
O                 2.7696681994        0.3928979196        0.2134752190
C                -0.9355943567       -0.5293915173        2.4611947896
C                -0.9388915419        0.9503360911        2.0772577329
C                -1.5746662376       -0.7211337340        3.7971931479
C                 1.1189675820       -0.8663277974        1.3711365359
C                 1.9374948818        0.1427227348        1.2944414702
H                -1.5432330954       -1.0722374489        1.6850249191
H                -0.0561329802        1.1903495088        1.4484948673
H                -1.8490468322        1.2157184254        1.5092123261
H                -0.8998078441        1.6069648491        2.9882689725
H                -1.0459313251       -0.0734739362        4.5572339682
H                -1.5344458307       -1.7728418439        4.1498500073
H                -2.6638449613       -0.4326067031        3.7953383268
H                 1.0414873884       -1.6505045053        0.6012011747
H                 1.9876550046        0.8997384995        2.0630986071
H                 3.4337838663        1.0775928410        0.5166681370



