%nprocshared=20
%mem=5GB
#p m062x/cc-pVTZ opt=(calcfc,maxcycles=900,Tight) freq IOP(7/33=1,2/16=3) scf=(maxcycle=900) 

Gaussian input prepared by ASE

0 1
O                 0.0177892671        0.8384158486        1.5405989250
O                 1.7788050108       -0.4652674568        3.5362185067
C                 0.1637857856        2.1835050035        1.9446997069
C                 0.8180595187        2.3004130423        3.3213880240
C                -1.1682840831        2.8552966923        1.8787046176
C                 1.2195844626        0.2126242330        1.2998332256
C                 1.9699692558       -0.4075788092        2.1637330455
H                 0.8393117785        2.6861878217        1.1981604734
H                 0.7820623770        1.3366189727        3.8709488097
H                 1.8767406814        2.6028237643        3.2253256955
H                 0.2969302844        3.0623527289        3.9620927728
H                -1.6649751075        2.9105275919        2.8920818642
H                -1.8559749388        2.3042487820        1.2037957516
H                -1.0655689276        3.9129273320        1.5039665665
H                 1.5044694412        0.1547366044        0.2371826144
H                 2.8279452780       -0.9699003667        1.8259545513
H                 2.6794540007       -0.6126204972        3.9471943922



