%nprocshared=20
%mem=5GB
#p m062x/cc-pVTZ opt=(calcfc,maxcycles=900,Tight) freq IOP(7/33=1,2/16=3) scf=(maxcycle=900) 

Gaussian input prepared by ASE

0 1
O                -0.3623631816       -1.3850436534        1.4773407723
O                 0.5500080478        0.1494726974       -0.7215248480
C                -1.1738315806       -0.5083595653        2.2302161321
C                -2.2404919686       -1.3466552838        2.9348495367
C                -1.6946808159        0.6144781234        1.3947395262
C                 0.9213503026       -0.9026420545        1.3621741634
C                 1.3449859170       -0.1796227512        0.3662685437
H                -0.5421455260       -0.0404327198        3.0354262945
H                -2.0935519640       -2.4175190004        2.6821216286
H                -2.1690045878       -1.2523709188        4.0337062303
H                -3.2814567584       -1.0512473047        2.6319357335
H                -2.7944645921        0.5025769557        1.1609882819
H                -1.1386252893        0.6825629436        0.4364904988
H                -1.5723740936        1.6054297549        1.9168673934
H                 1.6110761692       -1.2072638049        2.1654303916
H                 2.3624395679        0.1775394214        0.3058868358
H                 0.9225379013        0.9895669719       -1.1180671764



