%nprocshared=20
%mem=5GB
#p m062x/cc-pVTZ opt=(calcfc,maxcycles=900,Tight) freq IOP(7/33=1,2/16=3) scf=(maxcycle=900) 

Gaussian input prepared by ASE

0 1
O                 0.3426190773        0.7895011644        2.3166119451
O                 0.2800342522       -0.1187026774       -0.4521249450
C                 0.2506275820        2.1837933290        2.1132300764
C                -0.5876912727        2.7598032743        3.2544778019
C                -0.3149510307        2.5497158597        0.7804543660
C                 1.3739091371        0.1679578703        1.6502639084
C                 1.3418943946       -0.2740163778        0.4264641411
H                 1.2923703465        2.6038323814        2.1816801831
H                -0.9921046490        1.9477364386        3.8941723661
H                 0.0101987503        3.4444196412        3.8832177884
H                -1.4762698147        3.3198135704        2.8551696717
H                -1.3359064752        3.0238717388        0.8779841188
H                -0.4496473824        1.6521457426        0.1414713710
H                 0.3474840816        3.2764088794        0.2303102420
H                 2.2372859468       -0.0738210376        2.2904671528
H                 2.1535888084       -0.8703935361        0.0367088798
H                 0.4583542500        0.7015574962       -0.9972468817



