%nprocshared=20
%mem=5GB
#p m062x/cc-pVTZ opt=(calcfc,maxcycles=900,Tight) freq IOP(7/33=1,2/16=3) scf=(maxcycle=900) 

Gaussian input prepared by ASE

0 1
C                 1.4087708272       -1.1579279197        0.5144298812
C                 0.1758157753       -0.4313321430        0.9313758815
C                -1.0981228237       -1.2193496896        0.7550500404
C                 2.1581845094       -0.5192083262       -0.6060353945
C                -1.8686263656       -1.4820758822        2.0274501267
C                 2.6417971648        0.8431683993       -0.3238374547
C                -2.2619458493       -0.2315212994        2.7699721055
H                 1.5059557790       -0.5116703213       -1.5245540942
H                 3.0192842577       -1.1766541747       -0.8744144169
H                 1.1499944442       -2.1967419933        0.2186654409
H                 2.0915857245       -1.2608984110        1.3826491934
H                 0.0884244393        0.5084713935        0.3640864517
H                 0.2774155722       -0.1148746167        1.9909926119
H                -0.8762260062       -2.1872013034        0.2742708853
H                -1.7664850594       -0.6791170883        0.0532057426
H                -2.7915289526       -2.0616772113        1.7631899250
H                -1.2816192018       -2.1346985592        2.6958559923
H                 2.3192749243        1.1990298352        0.6727673731
H                 3.7707093659        0.8934030355       -0.3477048709
H                 2.2697428289        1.5743655486       -1.0724485687
H                -2.5875427430        0.5520348248        2.0846951665
H                -1.3960673808        0.1664126580        3.3681047191
H                -3.1044251839       -0.4464129097        3.4882577497



