%nprocshared=20
%mem=5GB
#p m062x/cc-pVTZ opt=(calcfc,maxcycles=900,Tight) freq IOP(7/33=1,2/16=3) scf=(maxcycle=900) 

Gaussian input prepared by ASE

0 1
C                 1.3420614809       -1.1665120290        0.4296826707
C                 0.1623737988       -0.3813043325        0.8920130679
C                -0.9421813913       -0.2246664650       -0.1230753127
C                 2.2070417467       -0.4788466985       -0.5722911579
C                -2.2084413573       -0.9821486099        0.2002035742
C                 1.6186663226       -0.3266035176       -1.9140152704
C                -2.0342950145       -2.4745180845        0.3117036752
H                 3.1769155782       -1.0469809680       -0.6478156089
H                 2.4919459842        0.5238625027       -0.1733438518
H                 1.0076300271       -2.1425220032        0.0184204270
H                 1.9638088095       -1.4111386164        1.3152513987
H                 0.5018145177        0.6157334454        1.2135420679
H                -0.2392990384       -0.8614642504        1.8092703301
H                -0.5799612157       -0.5352381053       -1.1177940371
H                -1.2027204900        0.8500711923       -0.2136463121
H                -2.6324749048       -0.5894396103        1.1611903234
H                -2.9622582738       -0.7663953936       -0.5759863356
H                 0.7043335472       -0.9367590697       -2.0388548397
H                 1.3224877544        0.7452978621       -2.1161083623
H                 2.3323521222       -0.6241804828       -2.7112560303
H                -1.1388745108       -2.7317304666        0.8788385199
H                -1.9504881747       -2.9437508687       -0.7074413527
H                -2.9229235596       -2.9371338000        0.8295937298



