%nprocshared=20
%mem=5GB
#p m062x/cc-pVTZ opt=(calcfc,maxcycles=900,Tight) freq IOP(7/33=1,2/16=3) scf=(maxcycle=900) 

Gaussian input prepared by ASE

0 1
C                 1.3412450506       -1.1891122304        0.4304348491
C                 0.1500857887       -0.4204425223        0.8911408753
C                -0.9196251127       -0.2351506765       -0.1559348284
C                 2.2047968532       -0.4923974835       -0.5665069073
C                -2.2414999136       -0.9020465853        0.1433970901
C                 1.6314873639       -0.3373849777       -1.9144218053
C                -2.8891966640       -0.4696799699        1.4331543926
H                 3.1775547297       -1.0560799144       -0.6382004965
H                 2.4817827150        0.5098414489       -0.1608579521
H                 1.0188497957       -2.1667936068        0.0135692521
H                 1.9614751894       -1.4304882754        1.3179572769
H                 0.4786199628        0.5667325821        1.2520229054
H                -0.2789219328       -0.9273665790        1.7812172067
H                -0.5545592811       -0.6190066624       -1.1236667441
H                -1.0944612361        0.8494994847       -0.3112123792
H                -2.9420495045       -0.6861670330       -0.7052174452
H                -2.1099411877       -1.9973119591        0.1620044160
H                 0.7321038553       -0.9640206576       -2.0638077788
H                 1.3152060252        0.7302027900       -2.1087370209
H                 2.3638293544       -0.6082679317       -2.7042255367
H                -2.8623976476        0.6127770283        1.5640997241
H                -2.3736138214       -0.9411864978        2.3150361910
H                -3.9693769791       -0.7930260827        1.4564326684



