%nprocshared=20
%mem=5GB
#p m062x/cc-pVTZ opt=(calcfc,maxcycles=900,Tight) freq IOP(7/33=1,2/16=3) scf=(maxcycle=900) 

Gaussian input prepared by ASE

0 1
C                 1.3782134853       -1.1313107270        0.5212141271
C                 0.1601345717       -0.4460351324        1.0395235612
C                -1.1185357291       -1.1904873854        0.7466496721
C                 2.1560325434       -0.4969272301       -0.5822264521
C                -2.3832875157       -0.4608477299        1.1336013890
C                 1.6643633989        0.7547461546       -1.1831943467
C                -2.5649793291        0.8822045003        0.4754793168
H                 2.2802949671       -1.2603375189       -1.4013108927
H                 3.1970159689       -0.3280812619       -0.2167135700
H                 1.0965544152       -2.1548023342        0.1945497759
H                 2.0729061167       -1.2975136321        1.3699912605
H                 0.0741555459        0.5746523344        0.6351846781
H                 0.2543256290       -0.3209553947        2.1389500498
H                -1.1050225494       -2.1593136668        1.2742068449
H                -1.1584852064       -1.4283581513       -0.3363860143
H                -3.2558103848       -1.1119297470        0.8646843200
H                -2.4222723790       -0.3329229172        2.2287614653
H                 0.6924500875        1.0832369809       -0.7692409291
H                 2.3922811683        1.6028167438       -1.0145292145
H                 1.5391060057        0.6560821661       -2.2823159518
H                -2.3290135324        0.8384642697       -0.5884684991
H                -1.9043659157        1.6599974536        0.9492805619
H                -3.6325419848        1.2292373371        0.5839333910



