%nprocshared=20
%mem=5GB
#p m062x/cc-pVTZ opt=(calcfc,maxcycles=900,Tight) freq IOP(7/33=1,2/16=3) scf=(maxcycle=900) 

Gaussian input prepared by ASE

0 1
C                 1.4075874136       -1.1832773805        0.4640764539
C                 0.1835885347       -0.4175390636        0.8347988899
C                -0.8357641792       -0.2268334247       -0.2604332379
C                 2.2479600657       -0.5751427190       -0.6078246884
C                -0.4472664915        0.7913920329       -1.3063726263
C                 3.5135238039       -1.2873884982       -0.8540798300
C                 0.0871308490        2.0824584512       -0.7429075819
H                 2.4649997695        0.4987109261       -0.3453978304
H                 1.6475450651       -0.5251851001       -1.5473784034
H                 1.1220192713       -2.2102702737        0.1521262441
H                 2.0212923267       -1.3092588709        1.3795756749
H                 0.4709245935        0.5773728599        1.2093299085
H                -0.3080550909       -0.9388692636        1.6831837483
H                -1.7901104376        0.0757176691        0.2030423221
H                -1.0350744706       -1.1931064320       -0.7681109338
H                 0.3304667733        0.3355984033       -1.9733834779
H                -1.3188977517        0.9946259689       -1.9515199609
H                 3.6321030226       -2.1622145392       -0.1873733677
H                 3.5752555337       -1.6697758420       -1.9159202337
H                 4.3939960658       -0.6293189626       -0.6953177995
H                 0.4775583521        1.9336245257        0.2645609523
H                -0.7107964728        2.8741250088       -0.6935554733
H                 0.9199762808        2.4870217886       -1.3867873011



