%nprocshared=20
%mem=5GB
#p m062x/cc-pVTZ opt=(calcfc,maxcycles=900,Tight) freq IOP(7/33=1,2/16=3) scf=(maxcycle=900) 

Gaussian input prepared by ASE

0 1
C                 1.5062549059       -1.0874127261        0.5837939562
C                 0.1839064797       -0.4877737187        0.9211235436
C                -1.0605180219       -1.2952840668        0.6485126351
C                 2.2149315680       -0.4107242422       -0.5408820435
C                -0.9180368820       -2.6428443502       -0.0189326042
C                 1.4551536253       -0.2938271082       -1.7973293197
C                -1.2446535888       -3.8110949206        0.8746209764
H                 3.1775008727       -0.9648206896       -0.7294906344
H                 2.5242858269        0.6072105741       -0.2034449792
H                 1.3939061930       -2.1664433361        0.3457872139
H                 2.1635678273       -1.0475004677        1.4765372648
H                 0.0881268426        0.4715968449        0.3890336896
H                 0.1807824671       -0.2143527265        1.9974537446
H                -1.7364968099       -0.6790543236        0.0317167843
H                -1.5986424063       -1.4356019496        1.6086573111
H                -1.6050416658       -2.6817296965       -0.9043888125
H                 0.1016081094       -2.7743660303       -0.4192903307
H                 0.4389916963       -0.7255820659       -1.7274599385
H                 1.3322737062        0.7873436230       -2.1031173270
H                 1.9714304524       -0.8083257259       -2.6353279534
H                -2.1851233299       -3.6561609790        1.4048003421
H                -0.4364940000       -3.9833178344        1.6382157164
H                -1.3380932009       -4.7552829863        0.2649800694



