%nprocshared=20
%mem=5GB
#p m062x/cc-pVTZ opt=(calcfc,maxcycles=900,Tight) freq IOP(7/33=1,2/16=3) scf=(maxcycle=900) 

Gaussian input prepared by ASE

0 1
C                 1.3913097709       -1.1722166462        0.5233596086
C                 0.1653285194       -0.4358399184        0.9436961828
C                -0.6678966279       -1.1420080605        1.9839098238
C                 2.1294607378       -0.4907604414       -0.5792629973
C                -1.8810089406       -0.3364277961        2.3852845792
C                 3.3596491100       -1.1744959061       -1.0136932023
C                -1.5328546325        1.0210085714        2.9385304160
H                 2.3741781035        0.5592757146       -0.2526543294
H                 1.4408098319       -0.3664448714       -1.4487805009
H                 1.1088124863       -2.1962582313        0.1991519340
H                 2.0664017628       -1.3058424901        1.3934393844
H                -0.4617212390       -0.2367747805        0.0605954516
H                 0.4447553535        0.5606940080        1.3463080032
H                -0.0497422616       -1.3527683752        2.8730604349
H                -1.0026100051       -2.1254399842        1.5940722080
H                -2.5408232447       -0.2065966297        1.4878943116
H                -2.4704691045       -0.9033192635        3.1258458186
H                 3.5649639097       -2.0868507865       -0.4226487495
H                 3.2957224969       -1.4944222930       -2.0958652890
H                 4.2474066079       -0.5133595104       -0.9227119339
H                -0.6415311982        1.4155819310        2.4492120950
H                -1.3292851214        0.9692165503        4.0438523694
H                -2.3764637127        1.7527378138        2.7811133408



