%nprocshared=20
%mem=5GB
#p m062x/cc-pVTZ opt=(calcfc,maxcycles=900,Tight) freq IOP(7/33=1,2/16=3) scf=(maxcycle=900) 

Gaussian input prepared by ASE

0 1
C                 1.4173488858       -1.1958744243        0.4998965586
C                 0.2082758577       -0.4458114165        0.9443191583
C                -1.0988606758       -1.1617865966        0.7124665451
C                 2.1662710049       -0.5512139483       -0.6174908183
C                -2.3279316259       -0.4079942096        1.1628934281
C                 2.6378921448        0.8124246855       -0.3214327212
C                -2.0837729248        0.9412311098        1.7873159102
H                 1.5176305879       -0.5393064165       -1.5385008943
H                 3.0324494593       -1.2016864387       -0.8865178512
H                 1.1430578680       -2.2303267594        0.2028287143
H                 2.1077113730       -1.3106492185        1.3606347667
H                 0.1642416500        0.5351605655        0.4458814099
H                 0.3008477621       -0.2190224651        2.0274870650
H                -1.0645692297       -2.1395081189        1.2223765974
H                -1.1952035144       -1.3958739716       -0.3678417064
H                -3.0150147619       -0.2743083675        0.2867854440
H                -2.8938073940       -1.0234300291        1.8828125467
H                 2.3023665851        1.1555364315        0.6753501381
H                 3.7664153893        0.8739281818       -0.3351635835
H                 2.2633024804        1.5492300811       -1.0632498768
H                -1.2973780478        1.4900099170        1.2676978407
H                -1.7803513217        0.8394581014        2.8659433554
H                -3.0270291837        1.5585852982        1.7552919198



