%nprocshared=20
%mem=5GB
#p m062x/cc-pVTZ opt=(calcfc,maxcycles=900,Tight) freq IOP(7/33=1,2/16=3) scf=(maxcycle=900) 

Gaussian input prepared by ASE

0 1
C                 1.4033008940       -1.1413197448        0.5131137938
C                 0.1785003127       -0.4037804610        0.9348517347
C                 0.0874373777       -0.1079780519        2.4110598795
C                 2.1491666738       -0.5080511488       -0.6127996770
C                -1.1313190728       -0.7006560861        3.0781942004
C                 3.5331147815       -0.1184415178       -0.2926759655
C                -2.0594015736        0.3137870215        3.6942249814
H                 1.5795452326        0.3973468546       -0.9662421888
H                 2.1501604729       -1.2007145706       -1.4879976640
H                 1.1108994704       -2.1727769662        0.2229863943
H                 2.0811691300       -1.2704944703        1.3817060025
H                -0.7085818116       -0.9782658500        0.6254376553
H                 0.1151293418        0.5535580231        0.3756177524
H                 0.0955028115        0.9856718337        2.5559336748
H                 0.9990527657       -0.4849397525        2.9189988725
H                -1.7090457817       -1.2993921648        2.3263515987
H                -0.8127801132       -1.4153512983        3.8560141377
H                 3.7957872478       -0.3408381107        0.7587145761
H                 4.2816684848       -0.6665452854       -0.9382652647
H                 3.7007524533        0.9676274143       -0.4534372352
H                -2.0930881942        1.2332338822        3.1085111417
H                -1.7334650985        0.5803086184        4.7375807369
H                -3.1087434395       -0.0938334237        3.7621316899



