%nprocshared=20
%mem=5GB
#p m062x/cc-pVTZ opt=(calcfc,maxcycles=900,Tight) freq IOP(7/33=1,2/16=3) scf=(maxcycle=900) 

Gaussian input prepared by ASE

0 1
C                 1.3989386751       -1.1668545133        0.5297170655
C                 0.1824433202       -0.4132583244        0.9470842730
C                -0.6482451549       -1.1186275888        1.9898655867
C                 2.1368133105       -0.5118191368       -0.5889856198
C                -1.9003124803       -0.3664291059        2.3748689567
C                 3.5220249191       -0.1211032072       -0.2757491570
C                -2.8289671303       -0.0970272991        1.2194689924
H                 1.5618621014        0.3963143377       -0.9264177457
H                 2.1289063337       -1.1880368160       -1.4769170642
H                 1.1119346293       -2.1993828636        0.2380145058
H                 2.0688100260       -1.2877746037        1.4056705945
H                -0.4447378126       -0.2139909975        0.0641224454
H                 0.4865944578        0.5830582913        1.3319229233
H                -0.0403412675       -1.2985495335        2.8927523446
H                -0.9362147915       -2.1192776297        1.6065670814
H                -2.4458842735       -0.9585336617        3.1554353879
H                -1.6304180968        0.5903790827        2.8533407762
H                 3.7838597521       -0.3368784812        0.7772288539
H                 4.2668922134       -0.6682208528       -0.9264187549
H                 3.6874948002        0.9642564332       -0.4433989990
H                -2.8709367684       -0.9418573751        0.5309352517
H                -2.4962464808        0.8063104305        0.6371138639
H                -3.8738208577        0.1042253717        1.5931829885



