%nprocshared=20
%mem=5GB
#p m062x/cc-pVTZ opt=(calcfc,maxcycles=900,Tight) freq IOP(7/33=1,2/16=3) scf=(maxcycle=900) 

Gaussian input prepared by ASE

0 1
C                 1.4362670619       -1.1809617425        0.5730367641
C                 0.2032073921       -0.4859665749        1.0404863527
C                -1.0839446067       -1.1737278871        0.6594271459
C                 2.1367941562       -0.5315835302       -0.5726489466
C                -2.0068852670       -0.4410936802       -0.2856286178
C                 2.6219247632        0.8325299190       -0.3016692206
C                -1.5660277808        0.9150719388       -0.7718233944
H                 1.4494254490       -0.5185896288       -1.4651124803
H                 2.9932051099       -1.1828741861       -0.8695258233
H                 1.1909913307       -2.2262101378        0.2886565473
H                 2.1473190511       -1.2626026993        1.4206119541
H                 0.1930767022        0.5519028992        0.6725059811
H                 0.2395013244       -0.4015819007        2.1472010753
H                -1.6416970739       -1.4039480705        1.5830257559
H                -0.8501920343       -2.1639443779        0.2167356096
H                -2.1922411243       -1.0907656749       -1.1806648436
H                -2.9914140553       -0.3241652100        0.1984075046
H                 2.2949852446        1.2019048431        0.6885589634
H                 3.7509819724        0.8822387504       -0.3188383871
H                 2.2544171813        1.5586430153       -1.0574405145
H                -0.5137521426        0.9323688577       -1.0581707674
H                -1.7223165176        1.7022101113        0.0167493087
H                -2.1837485780        1.2132957364       -1.6670148170



