%nprocshared=20
%mem=5GB
#p m062x/cc-pVTZ opt=(calcfc,maxcycles=900,Tight) freq IOP(7/33=1,2/16=3) scf=(maxcycle=900) 

Gaussian input prepared by ASE

0 1
C                 1.5060145377       -1.0594021233        0.5785202633
C                 0.1740368013       -0.4630500064        0.8821038801
C                -0.7560316839       -0.3505477084       -0.2999696607
C                 2.2792140669       -0.3421084953       -0.4763154392
C                -1.3349357454       -1.6642105061       -0.7699301713
C                 2.5526326674       -1.1391419729       -1.6844408981
C                -0.3837605944       -2.5281063205       -1.5566167187
H                 3.2544915331        0.0117467610       -0.0372755077
H                 1.7437000007        0.5942451808       -0.7630585265
H                 1.3683541939       -2.1200776702        0.2791985068
H                 2.0976057543       -1.0877619242        1.5165284905
H                 0.3162935189        0.5428254331        1.3071484150
H                -0.3174868820       -1.0649282928        1.6754527927
H                -0.2346447821        0.1489255887       -1.1341193260
H                -1.5959819455        0.3176219485       -0.0185844664
H                -1.7072238949       -2.2380681109        0.1186694703
H                -2.2218960683       -1.4565515710       -1.3923764118
H                 2.3050154397       -2.2067420155       -1.5334607746
H                 1.9393806835       -0.7868187332       -2.5661019832
H                 3.6199946377       -1.0802345625       -1.9857059666
H                 0.5659984631       -2.6530834541       -1.0351606143
H                -0.1740683076       -2.0723617289       -2.5636845377
H                -0.8308205363       -3.5483369005       -1.7331133819



