%nprocshared=20
%mem=5GB
#p m062x/cc-pVTZ opt=(calcfc,maxcycles=900,Tight) freq IOP(7/33=1,2/16=3) scf=(maxcycle=900) 

Gaussian input prepared by ASE

0 1
C                 1.3735532857       -1.1459356715        0.4853638405
C                 0.1596562870       -0.4052162785        0.9323005335
C                 0.1206687241       -0.1044662414        2.4098022747
C                 2.1546384765       -0.4703424612       -0.5909752133
C                 0.1484654992       -1.3425715333        3.2746868713
C                 2.3405429547       -1.2730287831       -1.8119262416
C                 0.1471150394       -1.0603556063        4.7546457277
H                 3.1624245735       -0.1775723682       -0.1813551511
H                 1.6687291138        0.4994982120       -0.8537608292
H                 1.0692610893       -2.1555187861        0.1364731784
H                 2.0358571800       -1.3345184661        1.3550959609
H                -0.7415204594       -0.9786711930        0.6645036651
H                 0.0780816330        0.5561820535        0.3824693566
H                -0.7878323659        0.4811594023        2.6306911947
H                 0.9785223821        0.5495262416        2.6696593382
H                -0.7398158404       -1.9796958533        3.0245884852
H                 1.0411190622       -1.9378457127        3.0176296059
H                 1.8947494981       -2.2808293108       -1.7145330673
H                 1.8595978862       -0.7846932466       -2.7106788076
H                 3.4149371405       -1.4142344683       -2.0552991820
H                -0.4867919809       -0.2093462193        5.0066832901
H                 1.1876790208       -0.8450488348        5.1244148106
H                -0.2366764290       -1.9544845469        5.3248401213



