%nprocshared=20
%mem=5GB
#p m062x/cc-pVTZ opt=(calcfc,maxcycles=900,Tight) freq IOP(7/33=1,2/16=3) scf=(maxcycle=900) 

Gaussian input prepared by ASE

0 1
C                 1.3760701608       -1.1546731900        0.5123727724
C                 0.1256469930       -0.4449591448        0.9057065052
C                 0.3384670497        0.9461544187        1.4483783094
C                 2.1707562900       -0.4827459709       -0.5562776795
C                -0.2878109960        2.0304287885        0.6034950983
C                 1.4626238703       -0.3106240881       -1.8363205513
C                 0.6902718570        3.0246560551        0.0335898913
H                 3.1111114412       -1.0814553810       -0.7188045136
H                 2.5231827777        0.5060238707       -0.1769560599
H                 1.1071581704       -2.1797308877        0.1799279531
H                 2.0179919655       -1.2850251500        1.4076876015
H                -0.3944409757       -1.0559001530        1.6599908145
H                -0.5585387466       -0.4010168235        0.0320850505
H                 1.4192051010        1.1369307401        1.5612197893
H                -0.0803698865        1.0007079282        2.4744115912
H                -0.8500494846        1.5609841392       -0.2456397221
H                -1.0395889773        2.5745119866        1.2002056732
H                 0.4350259197       -0.7188915361       -1.8011171012
H                 1.3754517759        0.7808132252       -2.1168585117
H                 1.9919846192       -0.8149328107       -2.6723481882
H                 1.6455750822        2.5560110580       -0.2058795945
H                 0.8872991462        3.8649444443        0.7553621893
H                 0.2779295022        3.4809976994       -0.9117196802



