%nprocshared=20
%mem=5GB
#p m062x/cc-pVTZ opt=(calcfc,maxcycles=900,Tight) freq IOP(7/33=1,2/16=3) scf=(maxcycle=900) 

Gaussian input prepared by ASE

0 1
C                 1.3853795475       -1.1451138304        0.5061987285
C                 0.1323549417       -0.4439872977        0.9065916259
C                 0.3552771581        0.9215532793        1.5070802836
C                 2.1363763782       -0.4679097372       -0.5903524087
C                -0.9335061218        1.6356650128        1.8399238349
C                 3.3613463643       -1.1726860863       -1.0054741389
C                -0.7539375642        3.0103621362        2.4297448433
H                 2.3905810487        0.5798989185       -0.2638363350
H                 1.4576525634       -0.3408031717       -1.4672406708
H                 1.1336581007       -2.1798266681        0.1906323220
H                 2.0517059136       -1.2559697224        1.3861782879
H                -0.4154210069       -1.0699052611        1.6282933947
H                -0.5306929418       -0.3435410096        0.0214173224
H                 0.9443209760        1.5343674130        0.8037953072
H                 0.9749288870        0.8280722896        2.4227427757
H                -1.5484073033        1.7208179963        0.9060256357
H                -1.5294860226        1.0245296787        2.5389100516
H                 3.5498988079       -2.0770942238       -0.3968913288
H                 3.3036202753       -1.5058658288       -2.0839892700
H                 4.2595476590       -0.5258640866       -0.9141065573
H                 0.0769835981        3.5490504292        1.9726201721
H                -0.5662849122        2.9566085340        3.5377866352
H                -1.6920053096        3.6178559492        2.2785354779



