%nprocshared=20
%mem=5GB
#p m062x/cc-pVTZ opt=(calcfc,maxcycles=900,Tight) freq IOP(7/33=1,2/16=3) scf=(maxcycle=900) 

Gaussian input prepared by ASE

0 1
C                 1.3721932641       -1.1620758212        0.5109592598
C                 0.1500852683       -0.4159502059        0.9253409231
C                -0.6744332027       -1.1314538775        1.9661126546
C                 2.1608032790       -0.4853205933       -0.5591447660
C                -1.8885793614       -0.3478285568        2.4059799094
C                 1.4532943927       -0.3084239281       -1.8388814442
C                -2.7246132345       -1.0313736574        3.4565699001
H                 3.1025699759       -1.0794619955       -0.7300459739
H                 2.5136818123        0.5033658151       -0.1800259898
H                 1.0874039382       -2.1800393254        0.1700460099
H                 2.0287659100       -1.3164381080        1.3917137801
H                -0.4706457898       -0.2192532245        0.0372595750
H                 0.4456891343        0.5782552313        1.3221146659
H                -0.0433523048       -1.3383480354        2.8470526342
H                -0.9891333540       -2.1204654023        1.5737291960
H                -1.5546624749        0.6457229417        2.8045715208
H                -2.5253547551       -0.1304558489        1.5316079211
H                 0.4248167388       -0.7151518797       -1.8127045687
H                 1.3706531207        0.7841277858       -2.1164370290
H                 1.9869547702       -0.8102426603       -2.6736729521
H                -2.1138528105       -1.5749192994        4.1784479089
H                -3.4446183948       -1.7605487499        2.9920746540
H                -3.3358164717       -0.2706792225        4.0219535570



