%nprocshared=20
%mem=5GB
#p m062x/cc-pVTZ opt=(calcfc,maxcycles=900,Tight) freq IOP(7/33=1,2/16=3) scf=(maxcycle=900) 

Gaussian input prepared by ASE

0 1
C                 1.3974009240       -1.1556363046        0.5233557097
C                 0.1454131970       -0.4589160621        0.9345383763
C                -0.8454164218       -0.2793376992       -0.1883998625
C                 2.1348522238       -0.4730564883       -0.5790400426
C                -1.2293807641       -1.5884520308       -0.8368547882
C                 3.3601267755       -1.1688593972       -1.0081645058
C                -2.2037175573       -1.4601461166       -1.9788404605
H                 2.3829072677        0.5749717827       -0.2485235101
H                 1.4464955013       -0.3465413208       -1.4484732229
H                 1.1532326570       -2.1934408771        0.2120358956
H                 2.0614562735       -1.2551414245        1.4064033324
H                 0.3943468832        0.5282615868        1.3542972827
H                -0.3326667903       -1.0312477158        1.7574183820
H                -0.4105110945        0.3915922924       -0.9485536908
H                -1.7504567121        0.2323030397        0.1992476414
H                -0.2939470791       -2.0829168953       -1.2083230354
H                -1.6545273068       -2.2632538766       -0.0745208351
H                 3.5549557330       -2.0807352589       -0.4128467503
H                 3.2963616917       -1.4944362467       -2.0886596049
H                 4.2529201654       -0.5143498687       -0.9185568042
H                -2.0261580965       -0.5590259726       -2.5670862798
H                -3.2638161868       -1.4270083278       -1.6034042305
H                -2.1193842173       -2.3475960818       -2.6696403932



