%nprocshared=20
%mem=5GB
#p m062x/cc-pVTZ opt=(calcfc,maxcycles=900,Tight) freq IOP(7/33=1,2/16=3) scf=(maxcycle=900) 

Gaussian input prepared by ASE

0 1
C                 1.4253100982       -1.1676404290        0.4760655128
C                 0.1966687050       -0.4240076368        0.8753325252
C                -0.0128142340        0.9204151875        0.2244668112
C                 2.1668166482       -0.6112014912       -0.6925104431
C                 0.9525481622        1.9966910642        0.6619692926
C                 3.3698940723       -1.3738943072       -1.0673325342
C                 0.8250541364        3.2623398492       -0.1453746840
H                 2.4446159462        0.4566606006       -0.4652796289
H                 1.4670930235       -0.5474010663       -1.5597309888
H                 1.1508249708       -2.2192856942        0.2474246347
H                 2.1140090717       -1.2334314927        1.3432501182
H                 0.1822995186       -0.2998419949        1.9694356510
H                -0.6936566518       -1.0449014681        0.6406687030
H                -1.0390410605        1.2595385223        0.4457752033
H                 0.0462560512        0.7981686813       -0.8767648870
H                 0.7733984554        2.2293550737        1.7442322834
H                 1.9859812866        1.6183654882        0.5835734640
H                 3.5065568174       -2.2807664744       -0.4486360767
H                 3.3263857565       -1.7142088009       -2.1442861088
H                 4.2892192047       -0.7598174960       -0.9612982436
H                -0.2162355370        3.5722777967       -0.2414595665
H                 1.2412403365        3.1196212779       -1.1808842379
H                 1.4018736827        4.1030877498        0.3366069325



