%nprocshared=20
%mem=5GB
#p m062x/cc-pVTZ opt=(calcfc,maxcycles=900,Tight) freq IOP(7/33=1,2/16=3) scf=(maxcycle=900) 

Gaussian input prepared by ASE

0 1
O                 3.5114876033       -2.3601257009        1.9323782817
O                 1.4728433672        0.6689160678        1.5608035217
C                 3.3362853723       -2.5610808802        3.3190283652
C                 4.3635969138       -3.5861358022        3.7995548822
C                 1.9377961527       -2.9533390360        3.6660600667
C                 2.8312550974       -1.2730477736        1.4329383174
C                 2.1481788090       -0.4049911457        2.1213687969
H                 3.5551285939       -1.5846239163        3.8337959361
H                 5.1177452609       -3.7887807630        3.0106270335
H                 4.8935152175       -3.2151661118        4.6956877408
H                 3.8816575486       -4.5637222985        4.0728485533
H                 1.5534501494       -3.7601214433        2.9746367759
H                 1.2406101526       -2.0923794685        3.5971050486
H                 1.8860253470       -3.3501108674        4.7193660420
H                 2.9395000458       -1.1990656398        0.3390706723
H                 2.0199498004       -0.4566275581        3.1924961013
H                 1.6353801651        0.6315708938        0.5739044249



