%nprocshared=20
%mem=5GB
#p m062x/cc-pVTZ opt=(calcfc,maxcycles=900,Tight) freq IOP(7/33=1,2/16=3) scf=(maxcycle=900) 

Gaussian input prepared by ASE

0 1
O                 0.2128957599       -1.3467753049        2.3850113667
O                 2.1131566932       -3.1698146028        1.2952024865
C                -0.8679128975       -0.4570720305        2.5698301694
C                -0.4601170141        1.0078980790        2.4130582787
C                -1.5069042195       -0.7246524754        3.8927664324
C                 0.8782635676       -1.1444185060        1.1974793182
C                 1.7666266618       -1.9611589292        0.7098338077
H                -1.6339183895       -0.6727809382        1.7741848569
H                 0.2204618754        1.3320481661        3.2278901363
H                 0.0591896470        1.1485869891        1.4476499494
H                -1.3629790668        1.6765921420        2.4309105595
H                -0.7789950951       -0.5872304839        4.7459659243
H                -1.8972871349       -1.7623713315        3.9458253144
H                -2.3702467032       -0.0202072572        4.0599737000
H                 0.6521871037       -0.1963458274        0.6838798842
H                 2.2846806652       -1.7317558129       -0.2096317761
H                 2.8507764880       -3.5592511336        0.7419946351



