%nprocshared=20
%mem=5GB
#p m062x/cc-pVTZ opt=(calcfc,maxcycles=900,Tight) freq IOP(7/33=1,2/16=3) scf=(maxcycle=900) 

Gaussian input prepared by ASE

0 1
O                 4.2301742065        0.5999371522        2.0440407709
O                 1.7386907576       -0.0949497283        3.5619511765
C                 4.7675498690        0.1445083340        3.2678419185
C                 4.4168099210       -1.3046040155        3.6055803046
C                 4.5177839047        1.0974050518        4.3901940772
C                 3.0688504559        0.0374762973        1.5656477389
C                 1.9702912215       -0.2471592015        2.2029877512
H                 5.8785568845        0.1713623411        3.0909564079
H                 3.5687915663       -1.6621116731        2.9848831120
H                 5.2780740159       -1.9701678502        3.4139166390
H                 4.1290104078       -1.4164319066        4.6859951800
H                 3.6328100424        0.8229248741        5.0368530022
H                 4.3542719017        2.1292729306        4.0152447533
H                 5.4077743957        1.1264574202        5.0805812626
H                 3.1111162209       -0.1000130205        0.4733808107
H                 1.1181352308       -0.6748485996        1.6957061269
H                 2.5394857256        0.3737149295        3.9372691186



