%nprocshared=20
%mem=5GB
#p m062x/cc-pVTZ opt=(calcfc,maxcycles=900,Tight) freq IOP(7/33=1,2/16=3) scf=(maxcycle=900) 

Gaussian input prepared by ASE

0 1
O                -0.0629626039       -0.4169155698       -0.3478893963
O                 0.7829522163        1.4269363035        1.9712887981
C                -1.0494957784        0.5493341629       -0.0529470126
C                -2.3134501183       -0.1435613395        0.4562951491
C                -1.2961181627        1.4145272482       -1.2448731365
C                 1.0754238399       -0.4016264399        0.4252454608
C                 1.4647166569        0.3590491831        1.4070172006
H                -0.6703718638        1.2079907422        0.7769823686
H                -2.2645143161       -1.2355808306        0.2631356856
H                -2.4404751363       -0.0001079860        1.5447673813
H                -3.2351818384        0.2510427425       -0.0509805105
H                -2.2979520126        1.2093622945       -1.7254167338
H                -0.5171430675        1.2582147506       -2.0200109915
H                -1.2777878264        2.5061838131       -0.9664642231
H                 1.7535319448       -1.2075627324        0.1021776034
H                 2.4253019233        0.1633112901        1.8602117760
H                 1.3710305634        1.7911548449        2.6946776366



