%nprocshared=20
%mem=5GB
#p m062x/cc-pVTZ opt=(calcfc,maxcycles=900,Tight) freq IOP(7/33=1,2/16=3) scf=(maxcycle=900) 

Gaussian input prepared by ASE

0 1
O                 3.9521460032       -1.8430057731        2.4117169065
O                 1.2641350655       -0.6315022887        3.4519428621
C                 3.5328893537       -2.4866488339        3.5965480050
C                 3.7943333231       -1.6302950364        4.8356273222
C                 4.2129232983       -3.8122395428        3.6986884309
C                 3.1613682759       -0.8213396244        1.9376242714
C                 2.0325812893       -0.3147332895        2.3416564610
H                 2.4256190046       -2.6779903129        3.5358271476
H                 4.8507682451       -1.2900688104        4.8557079291
H                 3.1385320984       -0.7407951037        4.8497921830
H                 3.5976517163       -2.2178944951        5.7730032136
H                 5.3216608199       -3.6909672323        3.8794645488
H                 4.0772474587       -4.4041618193        2.7695519634
H                 3.7874440852       -4.4071918999        4.5557536046
H                 3.6071311100       -0.4104780618        1.0177193730
H                 1.5760919253        0.4789894490        1.7689048788
H                 1.8070004809       -1.2541861833        4.0170487000



