%nprocshared=20
%mem=5GB
#p m062x/cc-pVTZ opt=(calcfc,maxcycles=900,Tight) freq IOP(7/33=1,2/16=3) scf=(maxcycle=900) 

Gaussian input prepared by ASE

0 1
O                 0.2014734786        0.7419570689        1.9477575059
O                 0.6706326721       -0.2983185213       -0.6608049053
C                 0.1503356613        2.1265650444        2.2200127865
C                -0.7580114425        2.8223511760        1.2062083043
C                 1.4918419944        2.7766221146        2.3086475633
C                 1.4243214165        0.2861970327        1.5109272528
C                 1.6347402777       -0.2275721516        0.3337198887
H                -0.3463837485        2.2306095619        3.2243985572
H                -1.7876329437        2.4106948469        1.2574966158
H                -0.8096571217        3.9082887612        1.4051010016
H                -0.3747007127        2.6725196045        0.1606205631
H                 2.1175657090        2.5588770680        1.3933646574
H                 2.0570499912        2.4210552064        3.1953191959
H                 1.3849967316        3.8950185361        2.3942928452
H                 2.2336663759        0.3041474309        2.2581723732
H                 2.5963544775       -0.6362821286        0.0604489873
H                 1.1162080749       -0.6823227603       -1.4706110579



