%nprocshared=20
%mem=5GB
#p m062x/cc-pVTZ opt=(calcfc,maxcycles=900,Tight) freq IOP(7/33=1,2/16=3) scf=(maxcycle=900) 

Gaussian input prepared by ASE

0 1
O                -0.3124278761       -1.5198352281        1.6408176157
O                 0.8154286062        1.1622473379        2.5615611417
C                -1.2946195395       -0.6406388609        2.1469703044
C                -1.3768373903       -0.6959357268        3.6724849099
C                -2.6038916579       -0.9752586538        1.5114345664
C                 0.9662962358       -1.0183254415        1.5556851335
C                 1.4742803305        0.1224861410        1.9224999954
H                -1.0226820710        0.4123961278        1.8579832188
H                -1.6330025859       -1.7170206679        4.0245882975
H                -0.4204451701       -0.3927164482        4.1360126979
H                -2.1786693639       -0.0005540800        4.0414567131
H                -2.8068670453       -2.0855599723        1.5635675135
H                -2.6170994338       -0.6824997142        0.4408308825
H                -3.4592166090       -0.4467108897        2.0199796176
H                 1.6254856735       -1.7447171909        1.0541265012
H                 2.5186086949        0.3151804338        1.7258534169
H                 1.5023833780        1.8680701434        2.7395780195



