%nprocshared=20
%mem=5GB
#p m062x/cc-pVTZ opt=(calcfc,maxcycles=900,Tight) freq IOP(7/33=1,2/16=3) scf=(maxcycle=900) 

Gaussian input prepared by ASE

0 1
O                 3.9392429147       -1.5499064837        2.6406626855
O                 1.0523975939        0.1915862821        1.2073445130
C                 3.4756431703       -2.4220283671        3.6497989288
C                 2.9366616731       -3.7242602163        3.0575966940
C                 2.5269175974       -1.7756191912        4.6048615050
C                 2.9754077768       -1.0764352746        1.7799991037
C                 1.9756107782       -0.3119252845        2.1116351791
H                 4.4081568468       -2.6806569997        4.2241469796
H                 2.7920023161       -3.6223041807        1.9617451998
H                 3.6363042264       -4.5625679033        3.2285544065
H                 1.9462427938       -4.0071443263        3.5066817236
H                 1.4678943197       -2.1451085884        4.4683581987
H                 2.5079129284       -0.6731594065        4.4772067530
H                 2.8221023687       -1.9894888588        5.6710168858
H                 3.1814698905       -1.3136783293        0.7240678141
H                 1.7520699646       -0.0204953555        3.1272733042
H                 1.3536039618       -0.0875224225        0.2945708527



