%nprocshared=20
%mem=5GB
#p m062x/cc-pVTZ opt=(calcfc,maxcycles=900,Tight) freq IOP(7/33=1,2/16=3) scf=(maxcycle=900) 

Gaussian input prepared by ASE

0 1
O                 3.2150957935        0.4199211164       -0.8314045982
O                 0.2547652051        0.8641874398       -0.2915471369
C                 2.6141671712        0.4638065232       -2.1084465404
C                 1.8044963803       -0.7928435240       -2.4282530435
C                 3.6715514286        0.7263002325       -3.1297717309
C                 2.4342353335       -0.0690909496        0.1908571595
C                 1.1726192457        0.1281035063        0.4428318476
H                 1.9098848961        1.3408491882       -2.1420449136
H                 2.3012349964       -1.6981311861       -2.0209241148
H                 0.7858927740       -0.7352065055       -2.0032698823
H                 1.7057590443       -0.9156884955       -3.5408133301
H                 4.4289606005       -0.1113266349       -3.1671675477
H                 4.2162895646        1.6664914770       -2.9031105808
H                 3.2126495216        0.8272905430       -4.1538672230
H                 3.0319442656       -0.6539471357        0.9080907506
H                 0.7097806128       -0.3318014921        1.3034656212
H                 0.7659628153        1.3417257786       -1.0073801051



