%nprocshared=20
%mem=5GB
#p m062x/cc-pVTZ opt=(calcfc,maxcycles=900,Tight) freq IOP(7/33=1,2/16=3) scf=(maxcycle=900) 

Gaussian input prepared by ASE

0 1
O                 0.7366861360        0.3841737676       -0.4227495984
O                 0.3831678623        0.1497209663        2.4000788333
C                 0.6698771984        1.7693635968       -0.6885746593
C                 0.3119530629        2.5714462689        0.5626511518
C                -0.2922035620        2.0293030056       -1.8007354724
C                 1.7426051734        0.0689965822        0.4619453726
C                 1.5848488927       -0.0767458903        1.7456603479
H                 1.6869914120        2.1126988102       -1.0261332729
H                -0.6432746960        2.2107831898        0.9981668598
H                 1.1016778907        2.4692929383        1.3290618859
H                 0.1915206881        3.6613899177        0.3173977612
H                -1.3318776815        1.6700279244       -1.5425010608
H                 0.0230513889        1.5216717746       -2.7361494659
H                -0.3558853119        3.1347555858       -2.0092559934
H                 2.7253333164       -0.1166704621       -0.0001259376
H                 2.4028554902       -0.3755039737        2.3844337929
H                 0.5318457326       -0.0573781574        3.3679566892



