%nprocshared=20
%mem=5GB
#p m062x/cc-pVTZ opt=(calcfc,maxcycles=900,Tight) freq IOP(7/33=1,2/16=3) scf=(maxcycle=900) 

Gaussian input prepared by ASE

0 1
O                 4.3404347574       -1.8794853344        0.0732060792
O                 1.0934687048       -1.1929383405        1.5697334103
C                 5.3898905857       -1.0125062479       -0.3021164329
C                 6.4804818977       -1.8539160056       -0.9651794313
C                 5.8996940852       -0.1929153132        0.8373749676
C                 3.2846856431       -1.2162220830        0.6557613357
C                 2.1761821575       -1.8206172661        0.9719551608
H                 4.9857362223       -0.3029681559       -1.0764297780
H                 6.2814912376       -2.9333337715       -0.7994330475
H                 6.5231219770       -1.6763189525       -2.0551918763
H                 7.4944248753       -1.6210155947       -0.5405532700
H                 6.8098595126       -0.6580508129        1.3189699547
H                 5.1196988930       -0.0796816101        1.6189503758
H                 6.1879785368        0.8405790005        0.4933645632
H                 3.4441943232       -0.1445845193        0.8554777924
H                 1.9988980752       -2.8705236994        0.7911526845
H                 1.3247967772       -0.2224847766        1.6502933454



