%nprocshared=20
%mem=5GB
#p m062x/cc-pVTZ opt=(calcfc,maxcycles=900,Tight) freq IOP(7/33=1,2/16=3) scf=(maxcycle=900) 

Gaussian input prepared by ASE

0 1
O                 0.1377541497       -0.6334332913        0.4677433192
O                -0.9150280028        1.5235831822        2.3965974146
C                -1.2112184560       -0.8358846351        0.8951226969
C                 0.7051752319        0.5701141273        0.8666043056
C                 0.2649991344        1.4939710330        1.6873999202
H                -1.2709239288       -0.9543775718        2.0153122614
H                -1.8713287962        0.0229489859        0.5831117031
H                -1.5646199648       -1.7529835265        0.4233948548
H                 1.6763446471        0.6995790574        0.3927931945
H                 0.8554124676        2.3664379417        1.8692973616
H                -1.4094068936        0.6623276484        2.1778647975



