%nprocshared=20
%mem=5GB
#p m062x/cc-pVTZ opt=(calcfc,maxcycles=900,Tight) freq IOP(7/33=1,2/16=3) scf=(maxcycle=900) 

Gaussian input prepared by ASE

0 1
O                 0.1914614011       -0.7063411499        1.1504072975
O                 0.4554979334        2.8987866017        0.4399499731
C                -1.1972173758       -0.8917851304        0.8665965247
C                 0.6491946545        0.5919128202        0.9643963895
C                -0.0615528265        1.6325295736        0.5998050966
H                -1.6851175514       -1.3812861276        1.7580964812
H                -1.7089180262        0.0913848394        0.6610947857
H                -1.3075910970       -1.5456066934        0.0012496778
H                 1.7154874154        0.6616492405        1.1707571168
H                -1.1097821618        1.5877190699        0.3946700938
H                 1.4463207285        2.8442845071        0.6620203460



