%nprocshared=20
%mem=5GB
#p m062x/cc-pVTZ opt=(calcfc,maxcycles=900,Tight) freq IOP(7/33=1,2/16=3) scf=(maxcycle=900) 

Gaussian input prepared by ASE

0 1
O                 0.0697416176       -0.7268580555        0.2261639893
O                 2.6373447577        0.0640197388       -0.6291894259
C                -1.2349936359       -0.8658242790        0.7933686057
C                 0.6698217870        0.4535428814        0.6458550407
C                 1.8659195104        0.8053700414        0.2377620299
H                -1.9162255538       -0.0411796536        0.4351587568
H                -1.6478863767       -1.8567862342        0.4495580506
H                -1.1915876188       -0.8455992715        1.8824953324
H                 0.0923260164        1.0686679129        1.3332763094
H                 2.3393096621        1.7099598636        0.5547669318
H                 2.0928964599       -0.7628140606       -0.8614338212



