%nprocshared=20
%mem=5GB
#p m062x/cc-pVTZ opt=(calcfc,maxcycles=900,Tight) freq IOP(7/33=1,2/16=3) scf=(maxcycle=900) 

Gaussian input prepared by ASE

0 1
O                 0.1966658532       -0.7128486669        1.3254398811
O                 2.8761682785        0.0298367115        1.7912044117
C                -1.1730639210       -0.8407011695        0.9370317797
C                 0.7492483457        0.4573362083        0.8205605817
C                 1.9985548658        0.7869422468        1.0476400793
H                -1.7838940757        0.0219998407        1.3308127711
H                -1.2707367158       -0.8659596441       -0.1856942530
H                -1.5500397191       -1.7738697436        1.3560494643
H                 0.0868000009        1.0841460910        0.2266752971
H                 2.4356831665        1.6844381903        0.6651574391
H                 2.3570073697       -0.7880751153        2.1002476680



