%nprocshared=20
%mem=5GB
#p m062x/cc-pVTZ opt=(calcfc,maxcycles=900,Tight) freq IOP(7/33=1,2/16=3) scf=(maxcycle=900) 

Gaussian input prepared by ASE

0 1
O                 0.2079534314       -0.7413794308        0.6983527148
O                -0.8866722493        1.4667705847        2.4616404356
C                -1.2072297405       -0.8622168359        0.8596650872
C                 0.6969826222        0.5445214824        0.8904267942
C                 0.2287116675        1.5023286888        1.6548217761
H                -1.5308308480       -1.7800098755        0.2892544985
H                -1.4805584415       -1.0139582024        1.9426967990
H                -1.7281697803        0.0127634370        0.4704079009
H                 1.6177369648        0.7007481547        0.3316488084
H                 0.7195559196        2.4511736175        1.6952978356
H                -1.2557100974        0.5206087616        2.4106070036



