%nprocshared=20
%mem=5GB
#p m062x/cc-pVTZ opt=(calcfc,maxcycles=900,Tight) freq IOP(7/33=1,2/16=3) scf=(maxcycle=900) 

Gaussian input prepared by ASE

0 1
C                 1.4060148184       -1.1648655355        0.4615839677
C                 0.1790678674       -0.4317327638        0.8847636794
C                -1.1142783504       -1.1996762175        0.7729583898
C                 2.1862307297       -0.5174630107       -0.6325637018
C                -1.8469203002       -1.4571560732        2.0685828097
C                 2.6700297003        0.8454166898       -0.3531273080
C                -1.2012807460       -0.8965427887        3.3090618226
H                 1.5711960583       -0.5060884471       -1.5763532505
H                 3.0520317520       -1.1775010665       -0.8785179146
H                 1.1501655366       -2.1922623187        0.1260642293
H                 2.0668586692       -1.3022535517        1.3419553768
H                 0.0933098267        0.5086164235        0.3181295874
H                 0.3025131249       -0.1149958403        1.9419743915
H                -0.9235700450       -2.1702584853        0.2843645464
H                -1.8025486055       -0.6626577017        0.0880934910
H                -2.8948093841       -1.0665028751        1.9858852484
H                -1.9574856575       -2.5468762197        2.2010421388
H                 2.3615524680        1.2068428830        0.6459182586
H                 3.7987723667        0.8929003852       -0.3880732920
H                 2.2984453527        1.5719409589       -1.1065062690
H                -0.7882054461        0.0980127086        3.1364171606
H                -0.3582845654       -1.5567276394        3.6545657768
H                -1.9421423117       -0.8423854765        4.1576342862



