%nprocshared=20
%mem=5GB
#p m062x/cc-pVTZ opt=(calcfc,maxcycles=900,Tight) freq IOP(7/33=1,2/16=3) scf=(maxcycle=900) 

Gaussian input prepared by ASE

0 1
C                 1.3814943304       -1.1618509803        0.5232007977
C                 0.1599578627       -0.4138588131        0.9358991451
C                 0.1028983475       -0.0354502621        2.3948484898
C                 2.1397924260       -0.5064438572       -0.5815396792
C                 0.0149825125        1.4620155403        2.5725271786
C                 3.3728708052       -1.1801773061       -1.0233407325
C                -1.2052750309        2.0474057267        1.9105485329
H                 2.3912849584        0.5460223700       -0.2681675572
H                 1.4552105567       -0.3868907482       -1.4549295339
H                 1.1033649008       -2.1869693389        0.1986197274
H                 2.0356314621       -1.2992319786        1.4085679274
H                -0.7458581760       -0.9887530705        0.6875463181
H                 0.0741073794        0.5214504820        0.3433776544
H                 0.9772230717       -0.4344512465        2.9365846165
H                -0.7792915048       -0.5093260453        2.8726848284
H                 0.0103699083        1.7193620629        3.6639811773
H                 0.9134148733        1.9242029908        2.1292865851
H                 3.6053993208       -2.0951626551       -0.4466159797
H                 3.3038992127       -1.4826100618       -2.1102230985
H                 4.2561205303       -0.5127432072       -0.9344928469
H                -2.0496342485        1.3587004710        1.9587211645
H                -1.0088790622        2.2447270264        0.8204327096
H                -1.4950130394        3.0174739701        2.4074424750



