%nprocshared=20
%mem=5GB
#p m062x/cc-pVTZ opt=(calcfc,maxcycles=900,Tight) freq IOP(7/33=1,2/16=3) scf=(maxcycle=900) 

Gaussian input prepared by ASE

0 1
C                 1.3697521039       -1.1521277598        0.5080701825
C                 0.1190082104       -0.4398839233        0.8957710727
C                -0.1095961114        0.8865920128        0.2151950925
C                 2.1637017609       -0.4937487079       -0.5695229626
C                -1.4054591441        1.5248749128        0.6568246660
C                 1.4755143114       -0.3100263031       -1.8587984693
C                -1.4381414258        1.8062259659        2.1365879320
H                 3.1040090976       -1.0917438241       -0.7349306211
H                 2.5088202095        0.5014707518       -0.2004882712
H                 1.1089859960       -2.1865787784        0.1990578412
H                 2.0223453016       -1.2777156822        1.3963233401
H                 0.0974129151       -0.2512451737        1.9804988244
H                -0.7493911017       -1.1017611948        0.6931467598
H                -0.1043424407        0.7427260858       -0.8786049504
H                 0.7370001582        1.5684118640        0.4377736333
H                -1.5594160919        2.4784581133        0.0871785671
H                -2.2406963962        0.8510185877        0.4007845211
H                 0.4445480628       -0.7112252110       -1.8640109974
H                 1.3953132505        0.7834882486       -2.1332609352
H                 2.0159734806       -0.8141396989       -2.6878134695
H                -0.4438167137        2.0641576009        2.5031498757
H                -1.7699206689        0.8919378584        2.7021490430
H                -2.1455691041        2.6567375247        2.3558144546



