%nprocshared=20
%mem=5GB
#p m062x/cc-pVTZ opt=(calcfc,maxcycles=900,Tight) freq IOP(7/33=1,2/16=3) scf=(maxcycle=900) 

Gaussian input prepared by ASE

0 1
C                 1.3822881410       -1.1374218440        0.5250973250
C                 0.1211334728       -0.4372741461        0.9009239524
C                -0.1163505406        0.8804114630        0.2064543787
C                 2.1781218158       -0.5102341136       -0.5695762944
C                -1.4096291100        1.5212987488        0.6518719009
C                 2.6886382818        0.8515498748       -0.3361142488
C                -1.4353251334        1.8032200993        2.1316644325
H                 1.5290215802       -0.5075396374       -1.4903354182
H                 3.0310451179       -1.1864381264       -0.8166088708
H                 1.1190574340       -2.1665257003        0.2007035091
H                 2.0256470342       -1.2789015777        1.4176872082
H                 0.0923911938       -0.2458637563        1.9850001371
H                -0.7434194735       -1.1030770575        0.6947439670
H                -0.1023540225        0.7372932923       -0.8873668254
H                 0.7257557519        1.5648660247        0.4378062861
H                -1.5612035599        2.4781770721        0.0871335538
H                -2.2486483697        0.8504700080        0.4002856288
H                 2.3930496792        1.2647071761        0.6466408388
H                 3.8168958548        0.8888113953       -0.3925266417
H                 2.3015064380        1.5598484332       -1.0989604901
H                -0.4436654479        2.0652949372        2.5024822686
H                -1.7708839209        0.8929960840        2.7015347002
H                -2.1426148205        2.6527646839        2.3550461622



