%nprocshared=20
%mem=5GB
#p m062x/cc-pVTZ opt=(calcfc,maxcycles=900,Tight) freq IOP(7/33=1,2/16=3) scf=(maxcycle=900) 

Gaussian input prepared by ASE

0 1
C                 1.3659056551       -1.1461023049        0.5139883804
C                 0.1439398415       -0.4165593696        0.9573056549
C                -0.6628245078       -1.1750345804        1.9814290114
C                 2.1495316143       -0.4830999693       -0.5683166963
C                -2.0627915720       -1.4763624824        1.5008081059
C                 1.4626453958       -0.2990501917       -1.8582392607
C                -2.3758828888       -2.9491540924        1.4480390728
H                 3.0882629760       -1.0839765321       -0.7322268146
H                 2.5076863322        0.5066285596       -0.1969438956
H                 1.0899724687       -2.1733343286        0.1942513850
H                 2.0231714235       -1.2823421382        1.3972121898
H                -0.5064034600       -0.2061011917        0.0939134059
H                 0.4423407208        0.5734731453        1.3623340916
H                -0.7062163904       -0.6063301761        2.9257891043
H                -0.1460112559       -2.1245686231        2.2312968250
H                -2.8115421610       -0.9672138579        2.1623673047
H                -2.2023748965       -1.0494022810        0.4930970104
H                 0.4335475889       -0.7050511665       -1.8584677478
H                 1.3880850791        0.7947919708       -2.1329864404
H                 2.0077565338       -0.8069821244       -2.6818601073
H                -1.8639201948       -3.4805959647        2.2511839889
H                -2.0165313800       -3.3856155244        0.4752968194
H                -3.4865493060       -3.1225231113        1.5388542315



