%nprocshared=20
%mem=5GB
#p m062x/cc-pVTZ opt=(calcfc,maxcycles=900,Tight) freq IOP(7/33=1,2/16=3) scf=(maxcycle=900) 

Gaussian input prepared by ASE

0 1
C                 1.4091623053       -1.1124780628        0.5490574548
C                 0.1478307290       -0.4127249518        0.9250252567
C                 0.2884518690        0.9682359815        1.5150715309
C                 2.1999165629       -0.5123586802       -0.5643115095
C                -0.3239484706        2.0257046444        0.6271365158
C                 2.7886991072        0.8250254180       -0.3790384421
C                 0.1686185318        2.0050225217       -0.7965473915
H                 1.5411033311       -0.4881892651       -1.4778303681
H                 3.0089493868       -1.2386443171       -0.8167598873
H                 1.1143970911       -2.1296254554        0.2142423564
H                 2.0467532731       -1.2533120128        1.4458781930
H                -0.3971072286       -1.0634873667        1.6266206755
H                -0.5052687103       -0.3450099303        0.0294074262
H                 1.3496922724        1.2003159664        1.7075065245
H                -0.2234122991        1.0079156874        2.4987205305
H                -1.4317483380        1.8516541107        0.6246454143
H                -0.1852116946        3.0270128853        1.0691705459
H                 2.5472562753        1.2712623412        0.6040470615
H                 3.9136169129        0.8029178468       -0.4867747669
H                 2.4217686329        1.5296447812       -1.1551607778
H                 0.4168717624        0.9928612407       -1.1182271932
H                 1.0823380496        2.6494259609       -0.9219285321
H                -0.6160374264        2.4011625339       -1.5031393656



