%nprocshared=20
%mem=5GB
#p m062x/cc-pVTZ opt=(calcfc,maxcycles=900,Tight) freq IOP(7/33=1,2/16=3) scf=(maxcycle=900) 

Gaussian input prepared by ASE

0 1
C                 1.4760058147       -1.0324623097        0.5026263144
C                 0.1834676535       -0.4297509262        0.9362709158
C                -0.5911718879       -1.2127891988        1.9666915360
C                 2.2058863138       -0.3423434995       -0.6001141377
C                -0.0109575372       -2.5608223606        2.3242676004
C                 2.3589203786       -1.1886717702       -1.7958968325
C                -0.0242859488       -3.5843033488        1.2187202742
H                 3.2275439942       -0.0380095377       -0.2357898811
H                 1.7201161718        0.6221117888       -0.8822638961
H                 1.2982521008       -2.0820664495        0.1859067744
H                 2.1357938391       -1.0979939344        1.3920245655
H                -0.4613620777       -0.2487073269        0.0621410268
H                 0.3858338225        0.5802197417        1.3513163151
H                -1.6382026240       -1.3296307393        1.6392801251
H                -0.6534158610       -0.6293976275        2.9084583449
H                 1.0438390951       -2.3843587813        2.6615879374
H                -0.5293797194       -2.9615819159        3.2118995003
H                 1.8933363421       -2.1790907124       -1.6340915053
H                 1.8697551426       -0.7282316211       -2.7048787746
H                 3.4260165174       -1.3702288425       -2.0445635976
H                -0.0903137304       -3.1266612996        0.2309034354
H                -0.8729800004       -4.3137804902        1.3346559764
H                 0.9346756554       -4.1776376627        1.2339233497



