%nprocshared=20
%mem=5GB
#p m062x/cc-pVTZ opt=(calcfc,maxcycles=900,Tight) freq IOP(7/33=1,2/16=3) scf=(maxcycle=900) 

Gaussian input prepared by ASE

0 1
C                 1.3943729989       -1.0799314967        0.4815953198
C                 0.1382814577       -0.4075416502        0.9198754635
C                -1.0896286750       -1.2699989889        0.7669504651
C                 2.1856798326       -0.4187431777       -0.5962216969
C                -1.0443857119       -2.5787411691        1.5198446940
C                 1.4732144787       -0.2710541258       -1.8769122463
C                 0.2010804896       -2.8058094162        2.3366554568
H                 3.1114445672       -1.0413077095       -0.7527745631
H                 2.5584766124        0.5713114490       -0.2404555980
H                 1.1578042178       -2.1019244816        0.1167089667
H                 2.0783882323       -1.2132316308        1.3447280528
H                -0.0198036940        0.5320908154        0.3678019680
H                 0.2370364402       -0.1178303215        1.9873820440
H                -1.2434608794       -1.4826162515       -0.3046152550
H                -1.9831255519       -0.6974133091        1.0909160965
H                -1.9430643910       -2.6536781465        2.1863890820
H                -1.1794233358       -3.4092831560        0.8062446532
H                 0.4506900143       -0.6914703436       -1.8372503791
H                 1.3762105193        0.8110929548       -2.1884950727
H                 2.0097960008       -0.7713574615       -2.7107402516
H                 0.5724673448       -1.8672864602        2.7499646448
H                 1.0119048247       -3.2584038174        1.7013745854
H                 0.0363914408       -3.5166407601        3.1965859294



