%nprocshared=20
%mem=5GB
#p m062x/cc-pVTZ opt=(calcfc,maxcycles=900,Tight) freq IOP(7/33=1,2/16=3) scf=(maxcycle=900) 

Gaussian input prepared by ASE

0 1
C                 1.3557097460       -1.2035328048        0.2006828997
C                 0.1693864456       -0.5686441430        0.8421787798
C                -0.2493957367        0.8424366112        0.5128543213
C                 2.1115955075       -0.5516266821       -0.9077760047
C                -1.1875174661        0.9741429705       -0.6637015829
C                 1.4174077030        0.3177570613       -1.8731062170
C                -1.2849543919        2.3870386261       -1.1776644044
H                 2.6323861516       -1.3747899552       -1.4737398470
H                 2.9337253192        0.0562034250       -0.4601151356
H                 1.0408654721       -2.2061650527       -0.1587307320
H                 2.1027110135       -1.4125743315        0.9937368868
H                 0.2986600006       -0.6119068959        1.9349284822
H                -0.7022773565       -1.2301110030        0.6526548783
H                 0.6291684572        1.4969853106        0.3831835945
H                -0.7746875643        1.2411787251        1.4051647955
H                -0.8652924987        0.3025003958       -1.5019066069
H                -2.2003504069        0.6380448221       -0.3835808255
H                 1.0066175720        1.2165273936       -1.3757708191
H                 2.1573344646        0.6739127231       -2.6497640966
H                 0.5833112644       -0.1771954893       -2.4142137883
H                -0.3039152108        2.7761421927       -1.4528707988
H                -1.7130618941        3.0646037464       -0.3880511735
H                -1.9457142379        2.4479230562       -2.0895709852



