%nprocshared=20
%mem=5GB
#p m062x/cc-pVTZ opt=(calcfc,maxcycles=900,Tight) freq IOP(7/33=1,2/16=3) scf=(maxcycle=900) 

Gaussian input prepared by ASE

0 1
C                 1.3768140742       -1.1619677551        0.5236309165
C                 0.1514371696       -0.4192731770        0.9345077291
C                 0.0933877327       -0.0363112841        2.3922293971
C                 2.1384455280       -0.5070728048       -0.5791184442
C                 0.0341312681        1.4628843267        2.5671691926
C                 3.3714463306       -1.1798229048       -1.0226311765
C                 1.2051159167        2.0347623023        3.3232620465
H                 2.3911928559        0.5458723922       -0.2683758814
H                 1.4559279072       -0.3872306280       -1.4540828264
H                 1.1043013282       -2.1882676702        0.1980210462
H                 2.0324618597       -1.2976337675        1.4081446781
H                -0.7520898552       -0.9949037335        0.6796085176
H                 0.0728150318        0.5192264470        0.3460414895
H                 0.9627956506       -0.4492186079        2.9314519432
H                -0.7903175226       -0.5104339514        2.8670109027
H                 0.0091506779        1.9253538408        1.5458865389
H                -0.9043379870        1.7544960420        3.0686651894
H                 3.6056465596       -2.0951835829       -0.4471798564
H                 3.3040556011       -1.4825027592       -2.1095439261
H                 4.2552855693       -0.5130572043       -0.9346311721
H                 2.1119911248        1.4590509426        3.1342863674
H                 1.0062095340        1.9976701096        4.4300230868
H                 1.3884843544        3.1037892171        3.0143258535



