%nprocshared=20
%mem=5GB
#p m062x/cc-pVTZ opt=(calcfc,maxcycles=900,Tight) freq IOP(7/33=1,2/16=3) scf=(maxcycle=900) 

Gaussian input prepared by ASE

0 1
C                 1.1730235330       -1.3773430964        0.1476633435
C                 0.1007706726       -0.6282396720        0.8625629260
C                 0.2014624804       -0.2350028195        2.3152184074
C                 2.1351610469       -0.5332144810       -0.6183420775
C                 1.4028761313       -0.4836618940        3.1963975289
C                 3.3606288250       -1.2180516024       -1.0642277825
C                 2.7177857632       -0.9210349454        2.6050910567
H                 2.4191283309        0.3641385305        0.0007345691
H                 1.6181478195       -0.1038941363       -1.5094854355
H                 0.6630054325       -2.0599045047       -0.5647746967
H                 1.7257370855       -2.0472057001        0.8379065621
H                -0.8258711520       -1.2176565643        0.7812740221
H                -0.1172893644        0.2952311428        0.2855820126
H                -0.6549966391       -0.7060016290        2.8268446753
H                -0.0322645154        0.8479769931        2.3758086446
H                 1.5861878579        0.4656029065        3.7645643085
H                 1.1090535149       -1.2231395705        3.9606626701
H                 3.6250903280       -2.0835029360       -0.4278841312
H                 3.2631192482       -1.6048260174       -2.1217878822
H                 4.2280989845       -0.5246348529       -1.0515378717
H                 2.8201569535       -0.6326083105        1.5582346980
H                 2.8342811267       -2.0381297859        2.6713294715
H                 3.5623445594       -0.4527343798        3.1875849366



