%nprocshared=20
%mem=5GB
#p m062x/cc-pVTZ opt=(calcfc,maxcycles=900,Tight) freq IOP(7/33=1,2/16=3) scf=(maxcycle=900) 

Gaussian input prepared by ASE

0 1
C                 1.3825123506       -1.1482281963        0.5250665164
C                 0.1361165482       -0.4490434927        0.9488610469
C                -1.1366093408       -1.2181509629        0.6966220321
C                 2.1502724903       -0.5044429232       -0.5799723563
C                -2.3460805718       -0.4586594097        1.1886125423
C                 3.5405122735       -0.1120267580       -0.2921701354
C                -3.1125435128       -1.1791321218        2.2672132568
H                 1.5865772135        0.4000964015       -0.9449271275
H                 2.1557873884       -1.2012288843       -1.4518748911
H                 1.1146109822       -2.1772798359        0.2043515652
H                 2.0309170059       -1.2872406659        1.4143869402
H                 0.0371805917        0.5326099443        0.4597256504
H                 0.1908483875       -0.2316318343        2.0365154482
H                -1.0760115902       -2.2071381846        1.1817567844
H                -1.2266026563       -1.4242365790       -0.3899205037
H                -2.0085576523        0.5309608809        1.5938905940
H                -3.0253495399       -0.2373939828        0.3478417948
H                 3.8454639452       -0.3167387565        0.7513702882
H                 4.2729321900       -0.6578663905       -0.9578698360
H                 3.7020531822        0.9730950964       -0.4651076846
H                -2.4464851813       -1.7701024799        2.8970532007
H                -3.8569053713       -1.8875870175        1.8090902774
H                -3.6629783381       -0.4428810035        2.9205431075



