%nprocshared=20
%mem=5GB
#p m062x/cc-pVTZ opt=(calcfc,maxcycles=900,Tight) freq IOP(7/33=1,2/16=3) scf=(maxcycle=900) 

Gaussian input prepared by ASE

0 1
C                 1.2681515806       -1.3389898995        0.3455946337
C                 0.2172498684       -0.5048489385        0.9950390105
C                 0.5515927806        0.8703560378        1.5165829687
C                 1.7954540995       -0.7782079608       -0.9320992618
C                 1.9674269082        1.3967145455        1.5086341120
C                 2.9847636361       -1.4402436781       -1.4949835795
C                 3.1202042390        0.4307208315        1.5974397446
H                 2.0146456311        0.3160644881       -0.7782856734
H                 0.9667368461       -0.8130990116       -1.6789362243
H                 0.8030681336       -2.3253414390        0.1349182755
H                 2.1048925593       -1.5352117660        1.0470255951
H                -0.2123899035       -1.0905246225        1.8227339359
H                -0.6072156206       -0.3949541846        0.2592161375
H                 0.1550420339        0.9484493355        2.5431171777
H                -0.0507290958        1.6040492065        0.9420854044
H                 2.1113152096        2.0137062151        0.5833569771
H                 2.0559614190        2.1058507404        2.3491980105
H                 3.2437647282       -2.3904416828       -0.9910775109
H                 2.8317274649       -1.6877164574       -2.5871708729
H                 3.8800942526       -0.7847789547       -1.4476403256
H                 3.3874722990        0.0480695036        0.6116792436
H                 2.8917616040       -0.4296624964        2.2854906669
H                 4.0158545173        0.9802574684        2.0069567328



