%nprocshared=20
%mem=5GB
#p m062x/cc-pVTZ opt=(calcfc,maxcycles=900,Tight) freq IOP(7/33=1,2/16=3) scf=(maxcycle=900) 

Gaussian input prepared by ASE

0 1
C                 1.3825288276       -1.2183486578        0.5596665019
C                 0.1609723732       -0.4780015543        0.9858701449
C                -0.7330426020       -1.1899189443        1.9701937014
C                 2.1714468987       -0.5331098879       -0.5047968019
C                -0.2642007102       -2.5426659837        2.4518216366
C                 2.5419580191        0.8610143196       -0.2069269919
C                 0.8983477564       -2.5004700645        3.4092277349
H                 1.5880269254       -0.5576710839       -1.4682041002
H                 3.0970667385       -1.1248837205       -0.7017403554
H                 1.0967666574       -2.2283219522        0.1965268226
H                 2.0280238966       -1.3914821811        1.4451069453
H                -0.4305763096       -0.2219654821        0.0930090608
H                 0.4716897534        0.4960482790        1.4193873094
H                -1.7286873529       -1.3215218291        1.5135803521
H                -0.8970196662       -0.5359267293        2.8514147094
H                -1.1247636638       -3.0531845919        2.9581046539
H                 0.0010879111       -3.1715354342        1.5849852439
H                 1.6475891628        1.4916198791       -0.0446922325
H                 3.1799290230        0.9288952747        0.7236218269
H                 3.1230271900        1.3046947996       -1.0429883235
H                 0.6625669896       -1.9127786382        4.2972616517
H                 1.8030220661       -2.0482276992        2.9163780455
H                 1.1704549753       -3.5439010657        3.7395207976



