%nprocshared=20
%mem=5GB
#p m062x/cc-pVTZ opt=(calcfc,maxcycles=900,Tight) freq IOP(7/33=1,2/16=3) scf=(maxcycle=900) 

Gaussian input prepared by ASE

0 1
C                 0.8960701621       -1.3383375912        0.1351395112
C                 0.0289190506       -0.4293305790        0.9374603646
C                 0.7381225422        0.1836683435        2.1190883680
C                 2.1224759779       -0.6770184651       -0.3974126535
C                 0.0294241202        1.3871854425        2.6944107813
C                 1.8660117210        0.3293264906       -1.4419619033
C                -0.1895444951        2.4913070233        1.6929647516
H                 2.8213066909       -1.4636504971       -0.7998818086
H                 2.6599276515       -0.1925537569        0.4524077776
H                 0.3029629492       -1.7621860626       -0.7028060761
H                 1.1984982362       -2.2030495884        0.7608026008
H                -0.8561335610       -0.9835717541        1.2870083938
H                -0.3540115287        0.3865315539        0.2886239819
H                 1.7587664679        0.4682876514        1.8118403142
H                 0.8556464285       -0.5795383323        2.9158621541
H                -0.9633890594        1.0688222854        3.1073117752
H                 0.6102620035        1.7759764936        3.5480670598
H                 1.2283701920        1.1499731628       -1.0627107201
H                 2.8332280285        0.7880977158       -1.8046704742
H                 1.3556576269       -0.1161951499       -2.3220422783
H                -0.6486451618        2.1019529443        0.7834549941
H                 0.7848204746        2.9782693179        1.4112908100
H                -0.8625467821        3.2896716685        2.1190702725



