%nprocshared=20
%mem=5GB
#p m062x/cc-pVTZ opt=(calcfc,maxcycles=900,Tight) freq IOP(7/33=1,2/16=3) scf=(maxcycle=900) 

Gaussian input prepared by ASE

0 1
C                 1.7288190237       -1.2463169859        0.2204811598
C                 0.8275614214       -0.7854692188        1.3147012564
C                -0.6301408714       -1.0812736391        1.0645297541
C                 1.3616178417       -0.6948829943       -1.1159730537
C                -1.0334814554       -2.4780158068        1.4745668627
C                 2.1176478482       -1.2659627534       -2.2437468599
C                -0.6835079850       -2.7916794698        2.9060205108
H                 1.5013331391        0.4229171312       -1.1042148586
H                 0.2684571444       -0.8554711058       -1.2739802316
H                 1.7160674531       -2.3560361990        0.1764679171
H                 2.7729895528       -0.9641114762        0.4668788800
H                 0.9589053772        0.2976751605        1.4638060818
H                 1.1272601823       -1.2728523032        2.2664858338
H                -0.8474163539       -0.9402766329       -0.0078669770
H                -1.2539146227       -0.3469296989        1.6147933678
H                -2.1372864864       -2.6036719916        1.3217751194
H                -0.5428025611       -3.2104450114        0.8112103576
H                 1.9887738647       -2.3628414227       -2.3079949818
H                 1.7701251784       -0.8234496114       -3.2240254138
H                 3.2046245113       -1.0580778595       -2.1501631827
H                -1.3492169461       -2.2766592841        3.5996802310
H                 0.3689310862       -2.4563441319        3.1199873134
H                -0.7511942680       -3.8992118554        3.1077001627



