%nprocshared=20
%mem=5GB
#p m062x/cc-pVTZ opt=(calcfc,maxcycles=900,Tight) freq IOP(7/33=1,2/16=3) scf=(maxcycle=900) 

Gaussian input prepared by ASE

0 1
C                 1.4595088510       -0.7975778826        0.7598851773
C                 0.7705902594        0.2780878779        1.5281936413
C                 0.2937809133       -0.1758645163        2.8852353066
C                 1.7180960054       -0.4704359022       -0.6722938716
C                -0.6420284650       -1.3593662915        2.8125228893
C                 2.5517655983        0.7235137858       -0.8938031770
C                -0.9480993338       -1.9799458526        4.1508530062
H                 0.7341563010       -0.3355963046       -1.2040989873
H                 2.2017423095       -1.3511750125       -1.1582362468
H                 0.8449554097       -1.7210443291        0.8156551504
H                 2.4184575188       -1.0454690187        1.2594963435
H                -0.0890282484        0.6544357852        0.9519094200
H                 1.4545647309        1.1433406911        1.6577003648
H                -0.2110146594        0.6641583890        3.3918579359
H                 1.1703341763       -0.4364523885        3.5136405087
H                -1.6028086928       -1.0393509472        2.3308467812
H                -0.2024957138       -2.1189864566        2.1439061566
H                 2.0853253408        1.6308242833       -0.4659009833
H                 3.5701069849        0.6081665928       -0.4171358133
H                 2.7088298545        0.9018068685       -1.9787154758
H                -1.4282089230       -1.2645519730        4.8196462473
H                -0.0091524044       -2.3486513889        4.6491445587
H                -1.6396491870       -2.8623309256        4.0282174345



