%nprocshared=20
%mem=5GB
#p m062x/cc-pVTZ opt=(calcfc,maxcycles=900,Tight) freq IOP(7/33=1,2/16=3) scf=(maxcycle=900) 

Gaussian input prepared by ASE

0 1
C                 1.3973744850       -1.3416823906        0.8518519707
C                 0.4559070558       -0.1863403496        0.8237913534
C                 0.7492607528        0.8401998275       -0.2416385520
C                 1.4121777691       -2.1511101099       -0.4009982398
C                 2.1197865761        1.4642976218       -0.1238945467
C                 2.2956873252       -3.3283393729       -0.3450576742
C                 2.3981278399        2.5067864885       -1.1754024989
H                 1.7230793307       -1.4939145322       -1.2615619688
H                 0.3737217199       -2.4832612653       -0.6398282292
H                 1.1298557896       -1.9971894868        1.7076093514
H                 2.4227374940       -0.9740350248        1.0618757650
H                 0.4652520987        0.3046275201        1.8094629270
H                -0.5800491784       -0.5585057921        0.6770157964
H                -0.0181369763        1.6312650732       -0.1922417672
H                 0.6468625467        0.3704321346       -1.2416273930
H                 2.2283336820        1.9315909054        0.8897004675
H                 2.8885818341        0.6751614993       -0.1828708260
H                 1.9984399487       -4.0206165310        0.4650506355
H                 2.2582273131       -3.9048793384       -1.3165175785
H                 3.3529878326       -3.0372587291       -0.1693306251
H                 2.3286532606        2.0878194765       -2.1800008991
H                 3.4317118953        2.9312107273       -1.0433886895
H                 1.6652700580        3.3608046024       -1.1015334751



