%nprocshared=20
%mem=5GB
#p m062x/cc-pVTZ opt=(calcfc,maxcycles=900,Tight) freq IOP(7/33=1,2/16=3) scf=(maxcycle=900) 

Gaussian input prepared by ASE

0 1
C                 1.1757904623       -1.1897108969        0.4222639406
C                 0.1762982903       -0.1971694493        0.9099527993
C                -0.8403821176       -0.7684041080        1.8665268544
C                 2.1342561481       -0.6464691781       -0.5833492971
C                -1.6492711136       -1.9154485891        1.3082345557
C                 1.5035696192       -0.0548801881       -1.7757603795
C                -2.4678717164       -1.5652155157        0.0928516048
H                 2.8277771246       -1.4740433694       -0.9047296839
H                 2.7867725209        0.1164846781       -0.0956209746
H                 0.6412720921       -2.0615750567       -0.0110021426
H                 1.7499899572       -1.5876329019        1.2840045617
H                -0.3453885271        0.2489002603        0.0488198777
H                 0.7036309934        0.6397661518        1.4146452997
H                -1.5225219798        0.0385070622        2.1838643905
H                -0.3239383416       -1.1164682857        2.7848306791
H                -0.9595624848       -2.7604377233        1.0478200585
H                -2.3205861934       -2.2951383220        2.0971781154
H                 0.9153461118       -0.8043110450       -2.3380998107
H                 0.8001812881        0.7828911328       -1.4912959710
H                 2.2663986097        0.3653450583       -2.4649591706
H                -3.0298796841       -2.4326154595       -0.2554907580
H                -1.8107392182       -1.2123846971       -0.7494944483
H                -3.2026828379       -0.7412240080        0.3230139629



