%nprocshared=20
%mem=5GB
#p m062x/cc-pVTZ opt=(calcfc,maxcycles=900,Tight) freq IOP(7/33=1,2/16=3) scf=(maxcycle=900) 

Gaussian input prepared by ASE

0 1
C                 1.1001245566       -1.2192713077        0.2857834561
C                -0.0220572754       -0.4380424739        0.8793767470
C                 0.3602561646        0.9062976436        1.4464464888
C                 1.8537876919       -0.5022763049       -0.7832984230
C                -0.2131400355        2.0844291047        0.6948310299
C                 2.8053998945       -1.3458144032       -1.5265782578
C                 0.3332311494        2.2616770329       -0.6980033358
H                 2.4091317003        0.3610997736       -0.3192827773
H                 1.1323675551       -0.0349619871       -1.4952853853
H                 0.6893699246       -2.1671585752       -0.1220974829
H                 1.8053936252       -1.5188455271        1.0879646751
H                -0.4810485115       -1.0456883582        1.6748506652
H                -0.8145349076       -0.3077815439        0.1123912239
H                 1.4583541170        1.0030549448        1.4905197431
H                 0.0087116237        0.9683583224        2.4970223632
H                -1.3277974108        1.9755478144        0.6382259027
H                -0.0236643835        3.0048810195        1.2728685891
H                 3.5649806482       -1.7901606604       -0.8561510638
H                 2.2774488376       -2.1959008155       -2.0520843978
H                 3.3393223663       -0.7547706857       -2.3005849878
H                 0.2730858426        1.3364971758       -1.2724620325
H                 1.4130850018        2.5758600863       -0.6653805469
H                -0.2389021505        3.0626938822       -1.2483846530



