%nprocshared=20
%mem=5GB
#p m062x/cc-pVTZ opt=(calcfc,maxcycles=900,Tight) freq IOP(7/33=1,2/16=3) scf=(maxcycle=900) 

Gaussian input prepared by ASE

0 1
C                 1.5287126098       -1.1241610948        0.5960268242
C                 0.1311043826       -0.7701353371        0.9746038389
C                -0.0326054788       -0.0560758305        2.2930499366
C                 2.1330445876       -0.2703660711       -0.4673841679
C                 0.0110250599        1.4528088491        2.2376772026
C                 1.2646069577       -0.0483912335       -1.6362000107
C                 1.3699156811        2.0499687556        1.9793320929
H                 3.1025077834       -0.7384830187       -0.7992627232
H                 2.4149534092        0.7178524835       -0.0318309283
H                 1.5472244088       -2.1783806683        0.2469496063
H                 2.1865071670       -1.0994707667        1.4889661213
H                -0.4645997250       -1.6952073455        1.0200309834
H                -0.3251824726       -0.1660955022        0.1620808032
H                 0.7242768197       -0.4183564323        3.0092939536
H                -1.0152060014       -0.3428784335        2.7212849653
H                -0.7010840435        1.8158538681        1.4511536625
H                -0.3675623284        1.8451106163        3.1968597101
H                 0.2525440043        0.2592857029       -1.3122515253
H                 1.6797081618        0.7634184302       -2.3041760509
H                 1.1572920178       -0.9684258783       -2.2489903958
H                 1.7480055106        1.7738579696        0.9942488808
H                 2.1164161058        1.7088380367        2.7488946495
H                 1.3160502719        3.1753633817        2.0290266924



