%nprocshared=20
%mem=5GB
#p m062x/cc-pVTZ opt=(calcfc,maxcycles=900,Tight) freq IOP(7/33=1,2/16=3) scf=(maxcycle=900) 

Gaussian input prepared by ASE

0 1
C                 1.3351187996       -1.2016106738        0.6997989635
C                 0.0764851463       -0.9990965764        1.4723226958
C                 0.2487670953       -0.2265127182        2.7562288926
C                 1.4185698533       -0.4624404458       -0.5931392855
C                 0.5665870271        1.2393932425        2.5778670548
C                 1.2181390010        0.9931297819       -0.4895535437
C                -0.5795481437        2.0480239878        2.0279430983
H                 0.6628760758       -0.8869866467       -1.3127386031
H                 2.4148095995       -0.6672723869       -1.0528189173
H                 1.4606037104       -2.2835379658        0.4823975563
H                 2.2093027844       -0.9266837301        1.3249880681
H                -0.3548569526       -1.9801232836        1.7257311081
H                -0.6852728604       -0.4918794166        0.8432670606
H                 1.0513145632       -0.6929706817        3.3524319370
H                -0.6781414957       -0.3247324608        3.3581741609
H                 0.8694932073        1.6651843356        3.5700717369
H                 1.4347707947        1.3534951772        1.9066756780
H                 0.1690785389        1.2382046096       -0.2379792693
H                 1.8603524050        1.4373076122        0.3276391685
H                 1.4700231098        1.5032817911       -1.4433835197
H                -1.4860035655        1.9169109573        2.6201643082
H                -0.7997864377        1.7439777318        0.9673250954
H                -0.3205319141        3.1456265937        2.0199924855



