%nprocshared=20
%mem=5GB
#p m062x/cc-pVTZ opt=(calcfc,maxcycles=900,Tight) freq IOP(7/33=1,2/16=3) scf=(maxcycle=900) 

Gaussian input prepared by ASE

0 1
C                 1.1831687997       -1.0691303577        0.4009361774
C                -0.0204187975       -0.3204870929        0.8623185655
C                 0.2731401159        0.7993637466        1.8291377169
C                 2.1965405323       -0.2430564605       -0.3171903210
C                 0.9721508610        0.3472709469        3.0895736806
C                 1.7069957857        0.4052029604       -1.5458859239
C                 1.3103868874        1.4749551153        4.0297070098
H                 3.0764767604       -0.8985559310       -0.5724713790
H                 2.5953741839        0.5355671706        0.3759417584
H                 0.8552456206       -1.9007800334       -0.2581553987
H                 1.6715831844       -1.5470490498        1.2748291872
H                -0.7232405859       -1.0278082617        1.3296765953
H                -0.5503290962        0.1041238456       -0.0164055813
H                -0.6744990660        1.2981277030        2.0943509082
H                 0.8948159649        1.5651015277        1.3208960918
H                 0.3233749110       -0.3913421352        3.6290742106
H                 1.8956418783       -0.1937804254        2.8218276752
H                 1.3671632359       -0.3389308396       -2.2906394843
H                 0.8352023452        1.0912696604       -1.3294959747
H                 2.5060962147        1.0157406492       -2.0172398619
H                 0.4132603016        2.0035080184        4.3543202222
H                 1.9963160646        2.2193229050        3.5385071140
H                 1.8345521464        1.0792908112        4.9465410403



