%nprocshared=20
%mem=5GB
#p m062x/cc-pVTZ opt=(calcfc,maxcycles=900,Tight) freq IOP(7/33=1,2/16=3) scf=(maxcycle=900) 

Gaussian input prepared by ASE

0 1
C                 1.5479687795       -0.9566472411        0.7596159122
C                 0.1318484814       -0.4917846281        0.7379456015
C                -0.0913928731        0.9581331084        1.0884935514
C                 2.3804952011       -0.5399520197       -0.4058414529
C                 0.5109166453        1.9494166654        0.1208764300
C                 3.5061353953        0.3498947523       -0.0731342306
C                 0.1341095680        3.3772344917        0.4196715965
H                 1.7371478483       -0.0359826143       -1.1812476446
H                 2.7834817277       -1.4492710480       -0.9122956799
H                 1.5371229691       -2.0660683828        0.8110318510
H                 2.0243310396       -0.6282795548        1.7061345543
H                -0.4434157479       -1.0991645825        1.4540781922
H                -0.3113522413       -0.6990712842       -0.2589801036
H                 0.3042018347        1.1531684955        2.0997252582
H                -1.1853332922        1.1335027342        1.1491945715
H                 1.6283456056        1.8582705645        0.1446513547
H                 0.2000978203        1.7011309225       -0.9082037505
H                 4.1807485972       -0.1069836023        0.6752228612
H                 4.1209509482        0.5800423366       -0.9932265387
H                 3.1449857910        1.3163764629        0.3379331195
H                 0.4577055942        3.6735304457        1.4182066932
H                -0.9795794117        3.5238113693        0.3558620717
H                 0.6142461153        4.0748241478       -0.3251247969



