%nprocshared=20
%mem=5GB
#p m062x/cc-pVTZ opt=(calcfc,maxcycles=900,Tight) freq IOP(7/33=1,2/16=3) scf=(maxcycle=900) 

Gaussian input prepared by ASE

0 1
C                 1.4925852324       -0.8705517713        0.0455272527
C                 0.1600510494       -0.2993673379        0.3920305635
C                 0.0917100319        1.2056229564        0.4649396129
C                 2.1729858724       -0.2597561403       -1.1330352980
C                 1.0117570137        1.8363743869        1.4834527076
C                 1.2896416643        0.0646241738       -2.2662023827
C                 2.1772774763        2.5823664786        0.8876476050
H                 2.9909791339       -0.9534847013       -1.4776560284
H                 2.6926721254        0.6733643156       -0.8090483643
H                 1.3638136592       -1.9593593120       -0.1319340703
H                 2.1667415171       -0.7915320957        0.9229741598
H                -0.1686046373       -0.7249919632        1.3530271025
H                -0.5846884528       -0.6371638898       -0.3593096145
H                -0.9494797017        1.4880539991        0.6957646221
H                 0.2976630687        1.6087124468       -0.5480988708
H                 0.4244962264        2.5515376358        2.1168456624
H                 1.3957083221        1.0673772861        2.1751788252
H                 0.5604059565        0.8435248911       -1.9739557484
H                 1.8868384010        0.4616257497       -3.1398623488
H                 0.7237923510       -0.8232063076       -2.6198461173
H                 1.8397134120        3.4244644529        0.2822555634
H                 2.7949050975        1.9074883476        0.2327161506
H                 2.8477185609        2.9820918500        1.7016577276



