%nprocshared=20
%mem=5GB
#p m062x/cc-pVTZ opt=(calcfc,maxcycles=900,Tight) freq IOP(7/33=1,2/16=3) scf=(maxcycle=900) 

Gaussian input prepared by ASE

0 1
C                 1.5187225497       -1.0628684620        0.4409871198
C                 0.2698074189       -0.2617854738        0.5839577186
C                -0.9623119217       -0.8749513928       -0.0332063570
C                 2.5679698497       -0.4228982726       -0.4043200906
C                -0.7961703324       -1.2602572695       -1.4842883994
C                 2.2338360438       -0.3152803207       -1.8348305576
C                -2.0857905942       -1.6446446779       -2.1618219930
H                 3.5253573982       -1.0067772308       -0.2964767586
H                 2.7918773779        0.5930022383        0.0001136999
H                 1.2851623417       -2.0691074537        0.0329317058
H                 1.9508726991       -1.2451364320        1.4463072258
H                 0.4153302562        0.7422801417        0.1557514909
H                 0.0602124126       -0.0949091319        1.6616764760
H                -1.7968266759       -0.1602718265        0.0665021302
H                -1.2551046843       -1.7734503860        0.5482716885
H                -0.3247238643       -0.4090979834       -2.0417706300
H                -0.0829444700       -2.0989495435       -1.5561515250
H                 2.2270136356       -1.3087398996       -2.3215241572
H                 1.2097438146        0.1376323402       -1.9885873708
H                 2.9717613014        0.3183379553       -2.3710082283
H                -2.7789665319       -0.8035511445       -2.2024028678
H                -2.5922995145       -2.4892024565       -1.6177351870
H                -1.8884848771       -1.9868461478       -3.2181612889



