%nprocshared=20
%mem=5GB
#p m062x/cc-pVTZ opt=(calcfc,maxcycles=900,Tight) freq IOP(7/33=1,2/16=3) scf=(maxcycle=900) 

Gaussian input prepared by ASE

0 1
C                 1.6483859258       -0.8936089020        0.7217594444
C                 0.4613998398       -0.0765682753        1.1031676194
C                 0.5845701198        1.4093734212        0.8755970439
C                 2.0509118267       -0.8134270735       -0.7123150981
C                 1.7983370107        2.0466761887        1.5098823559
C                 0.9832958530       -1.1210381167       -1.6793511878
C                 2.9317162275        2.2941879960        0.5485731829
H                 2.9131463756       -1.5188965851       -0.8796473753
H                 2.4578691762        0.2052224650       -0.9184557138
H                 1.4398069676       -1.9528631850        0.9826266178
H                 2.5135738522       -0.5949525550        1.3485753013
H                 0.2457960626       -0.2518835066        2.1687495312
H                -0.4291894756       -0.4416977846        0.5492844071
H                -0.3248555989        1.8870693571        1.2779339613
H                 0.5777981561        1.6167194202       -0.2144059548
H                 1.5034685267        3.0273669142        1.9668491142
H                 2.1602007034        1.4223221525        2.3444462393
H                 0.1336096760       -0.4187275655       -1.5862253031
H                 1.3706758495       -1.0488293599       -2.7387182459
H                 0.5892249363       -2.1496571387       -1.5374240229
H                 2.6776142940        3.0831818080       -0.1602984500
H                 3.1745590372        1.3664573878       -0.0398168820
H                 3.8619385474        2.6088034671        1.1031790257



