%nprocshared=20
%mem=5GB
#p m062x/cc-pVTZ opt=(calcfc,maxcycles=900,Tight) freq IOP(7/33=1,2/16=3) scf=(maxcycle=900) 

Gaussian input prepared by ASE

0 1
O                -0.0788101365       -0.3788614368        1.6322777604
O                 1.0584715590        2.2976742309       -0.6229165771
C                -1.1209899251       -0.8366513353        0.7676064546
C                 0.6254716346        0.6833759544        1.0798086919
C                 0.3838909783        1.2207956912       -0.0922795441
H                -1.7707238433        0.0225697550        0.4329201336
H                -0.6799234191       -1.3361304001       -0.1416089825
H                -1.7221185305       -1.5599423918        1.3189544457
H                 1.4146440527        1.0288241601        1.7448655329
H                -0.3790798648        0.8692034646       -0.7534387449
H                 1.7712294538        2.5694872262        0.0494742460



