%nprocshared=20
%mem=5GB
#p m062x/cc-pVTZ opt=(calcfc,maxcycles=900,Tight) freq IOP(7/33=1,2/16=3) scf=(maxcycle=900) 

Gaussian input prepared by ASE

0 1
O                 0.1895254399       -0.7750844316        1.1089696865
O                -0.7444276083        1.6265100797        2.5683759560
C                -1.2013841040       -0.9251647109        0.8153486374
C                 0.6394940092        0.5282021776        0.9399860752
C                 0.2597173062        1.5791221776        1.6272333593
H                -1.4171473799       -0.7153658138       -0.2717854903
H                -1.4691052236       -2.0000238232        1.0243821295
H                -1.8095506219       -0.2708055919        1.4401988514
H                 1.4439661274        0.6131500175        0.2119499184
H                 0.7112576464        2.5342996550        1.4640757731
H                -1.1769314214        0.7063602032        2.5851150265



