%nprocshared=20
%mem=5GB
#p m062x/cc-pVTZ opt=(calcfc,maxcycles=900,Tight) freq IOP(7/33=1,2/16=3) scf=(maxcycle=900) 

Gaussian input prepared by ASE

0 1
O                 0.2321558142       -0.7539745133        1.0866401809
O                 0.3791337568        2.8640527482        0.4561099188
C                -1.1765936062       -0.8716077145        0.8746159595
C                 0.6628080989        0.5594679453        0.9488335138
C                -0.0850541424        1.5740046474        0.5849800157
H                -1.4465502474       -1.9592645384        1.0032861792
H                -1.7429031027       -0.2548957216        1.6293686221
H                -1.4486872200       -0.5461015408       -0.1296255235
H                 1.7222624456        0.6619151056        1.1757459127
H                -1.1255305143        1.4920258353        0.3535464746
H                 1.3619293372        2.8533719227        0.7169054462



