%nprocshared=20
%mem=5GB
#p m062x/cc-pVTZ opt=(calcfc,maxcycles=900,Tight) freq IOP(7/33=1,2/16=3) scf=(maxcycle=900) 

Gaussian input prepared by ASE

0 1
O                 0.2604218073       -0.8146869721        1.0313161145
O                 2.3539689231       -0.0929463581       -0.6807909161
C                -1.1573240256       -0.9178745367        0.8805983326
C                 0.6770793666        0.5018904552        0.8809714568
C                 1.6696252047        0.8237164995        0.0858282140
H                -1.3903778171       -1.7019067147        0.1038039878
H                -1.6287314119       -1.2294360190        1.8559937544
H                -1.5879177256        0.0291879298        0.5547887102
H                 0.1431864094        1.2363651114        1.4809160040
H                 2.0152903304        1.8266624464       -0.0464145112
H                 1.9401348795       -0.9981608897       -0.4725997155



