%nprocshared=20
%mem=5GB
#p m062x/cc-pVTZ opt=(calcfc,maxcycles=900,Tight) freq IOP(7/33=1,2/16=3) scf=(maxcycle=900) 

Gaussian input prepared by ASE

0 1
O                 0.1599170471       -0.7982489452        0.5159759344
O                 2.3126924661        2.1141686959        0.0673538749
C                -1.2030876218       -0.8875038741        0.9374241524
C                 0.5970319798        0.5195682675        0.4727152186
C                 1.8184456312        0.8294994340        0.1079366771
H                -1.6238893058        0.1416021398        1.1279411722
H                -1.8092720547       -1.3865004334        0.1285764676
H                -1.2692656304       -1.4831617987        1.8480844996
H                -0.1403198120        1.2624576285        0.7708022905
H                 2.5466635410        0.1016804848       -0.1799024150
H                 1.5653063633        2.7289790657        0.3795040990



