%nprocshared=20
%mem=5GB
#p m062x/cc-pVTZ opt=(calcfc,maxcycles=900,Tight) freq IOP(7/33=1,2/16=3) scf=(maxcycle=900) 

Gaussian input prepared by ASE

0 1
O                 0.2164884790       -0.7717225322        1.1175678927
O                 0.1332943148        0.6468459232       -1.3974524482
C                -1.1841743465       -0.8848614169        0.8554419456
C                 0.6850308270        0.5204998068        0.9170369607
C                 0.6500249661        1.1591482349       -0.2283340687
H                -1.4860151737       -1.9488474800        1.0773783165
H                -1.7676087773       -0.1879413386        1.5222240534
H                -1.4148756193       -0.6541456169       -0.1847682747
H                 1.1393796715        0.9605710089        1.8026625219
H                 1.0007624657        2.1635495812       -0.3333780215
H                -0.1546290332       -0.3057066454       -1.1882652359



