%nprocshared=20
%mem=5GB
#p m062x/cc-pVTZ opt=(ts,calcfc,noeigentest,maxcycles=900) freq scf=(maxcycle=900) IOP(7/33=1,2/16=3) 

Gaussian input prepared by ASE

0 2
O                 2.4893540000        0.2171050000       -0.2421670000
O                 1.6224670000       -0.7686170000        0.2256600000
C                -1.5488200000        0.6121470000       -0.3033660000
C                -0.2947580000        0.6800780000        0.5212080000
C                -2.3210640000       -0.6847170000       -0.0911260000
H                -1.3085680000        0.7399490000       -1.3605630000
H                -2.1867220000        1.4642540000       -0.0374820000
H                 0.5572630000       -0.3107340000        0.1141260000
H                 0.3726810000        1.5186210000        0.3499330000
H                -0.4056120000        0.4277400000        1.5723060000
H                -1.7207590000       -1.5450030000       -0.3872140000
H                -3.2420710000       -0.6995020000       -0.6700150000
H                -2.5810110000       -0.8080950000        0.9604600000
H                 2.6080790000       -0.0201860000       -1.1697940000



