%nprocshared=20
%mem=5GB
#p m062x/cc-pVTZ Opt=(ModRedun,Loose,maxcycles=900) Int(Grid=SG1) scf=(maxcycle=900) 

Gaussian input prepared by ASE

0 2
O                 1.7983773802       -1.5609476119        5.0157137666
O                 1.7513079239       -1.9897034272        3.7723719724
C                 3.5375674952        0.5920562024        2.1425314192
C                 2.1682025061        0.0049156441        2.4648889714
C                 4.3729879886        0.9261420512        3.3745048705
H                 3.3948581359        1.5172119381        1.5440171892
H                 4.0998348427       -0.1161221746        1.4970692931
H                 2.3025463139       -1.1668812288        3.1593018889
H                 1.5624454937        0.6579898016        3.1287729196
H                 1.5948089202       -0.2563082291        1.5499398505
H                 3.8466201134        1.6573733593        4.0245106274
H                 5.3455117638        1.3686820012        3.0723259677
H                 4.5793056508        0.0140371514        3.9741872897
H                 0.9135986078       -1.1373944551        5.1511387910

4 8 F
8 2 F
4 8 2 F

