%nprocshared=20
%mem=5GB
#p m062x/cc-pVTZ opt=(ts,calcfc,noeigentest,maxcycles=900) freq scf=(maxcycle=900) IOP(7/33=1,2/16=3) 

Gaussian input prepared by ASE

0 2
O                -1.9028710000       -0.8687120000        0.0935690000
O                -2.0262630000        0.4814190000       -0.2120100000
C                 1.1104310000       -0.1217410000       -0.4805860000
C                 0.3080620000        0.8928410000        0.2814190000
C                 2.4879470000       -0.3377870000        0.1581850000
H                 1.2354810000        0.2046190000       -1.5131760000
H                 0.5664190000       -1.0658920000       -0.5019760000
H                -0.9344720000        0.8792640000       -0.2924180000
H                 0.0656180000        0.6192150000        1.3054270000
H                 0.6286190000        1.9285030000        0.1891570000
H                 3.0584780000        0.5897210000        0.1735870000
H                 3.0600910000       -1.0801670000       -0.3962160000
H                 2.3854200000       -0.6870210000        1.1853110000
H                -2.0712170000       -0.8897720000        1.0437300000



