%nprocshared=20
%mem=5GB
#p m062x/cc-pVTZ opt=(ts,calcfc,noeigentest,maxcycles=900) freq scf=(maxcycle=900) IOP(7/33=1,2/16=3) 

Gaussian input prepared by ASE

0 2
O                 1.9238140000        0.7944690000        0.3196120000
O                 2.0273700000       -0.4746110000       -0.2423540000
C                -1.1131560000        0.1340840000       -0.4765920000
C                -0.3031140000       -0.8847950000        0.2699050000
C                -2.4959460000        0.3246190000        0.1589880000
H                -1.2317240000       -0.1705570000       -1.5172180000
H                -0.5857180000        1.0888570000       -0.4718960000
H                 0.9373960000       -0.8800050000       -0.3084350000
H                -0.0195910000       -0.6104280000        1.2813990000
H                -0.6317550000       -1.9175910000        0.1741770000
H                -3.0519910000       -0.6117380000        0.1596990000
H                -3.0772390000        1.0649700000       -0.3886280000
H                -2.4008780000        0.6608400000        1.1908550000
H                 1.9253280000        1.3733390000       -0.4518200000



