%nprocshared=20
%mem=5GB
#p m062x/cc-pVTZ opt=(ts,calcfc,noeigentest,maxcycles=900) freq scf=(maxcycle=900) IOP(7/33=1,2/16=3) 

Gaussian input prepared by ASE

0 2
O                -2.2839320000       -0.1254810000       -0.4100330000
O                -1.3556540000       -0.4879830000        0.5648740000
C                 1.6836000000        0.4893790000        0.1761560000
C                 0.3428920000        1.0908360000       -0.1308920000
C                 1.7749190000       -0.9849380000       -0.2033190000
H                 1.9229280000        0.6252970000        1.2325090000
H                 2.4441150000        1.0551090000       -0.3757350000
H                -0.5957810000        0.3946660000        0.5815730000
H                 0.1813920000        2.1107920000        0.2114030000
H                -0.0503240000        0.9013970000       -1.1249610000
H                 1.0611190000       -1.5752940000        0.3670780000
H                 2.7742640000       -1.3761530000       -0.0225560000
H                 1.5412150000       -1.1200810000       -1.2595270000
H                -2.9707020000        0.3203170000        0.0998210000



