%nprocshared=20
%mem=5GB
#p m062x/cc-pVTZ opt=(ts,calcfc,noeigentest,maxcycles=900) freq scf=(maxcycle=900) IOP(7/33=1,2/16=3) 

Gaussian input prepared by ASE

0 2
O                 1.9413770000        0.1756660000        0.5797030000
O                 1.3564560000        0.5671570000       -0.6226670000
C                -1.1415170000       -0.3478100000        0.5781310000
C                -0.3462250000       -1.1411500000       -0.4119980000
C                -1.9294750000        0.7812010000       -0.0746150000
H                -0.4691940000        0.0453000000        1.3416870000
H                -1.8285850000       -1.0286450000        1.0931260000
H                 0.6130380000       -0.2891630000       -0.8887540000
H                 0.3123940000       -1.9026710000       -0.0028690000
H                -0.8775070000       -1.4533320000       -1.3094660000
H                -1.2491400000        1.4798570000       -0.5595410000
H                -2.5173360000        1.3301260000        0.6582400000
H                -2.6115300000        0.3908390000       -0.8311380000
H                 2.7485040000       -0.2683390000        0.2933180000



