%nprocshared=20
%mem=5GB
#p m062x/cc-pVTZ opt=(ts,calcfc,noeigentest,maxcycles=900) freq scf=(maxcycle=900) IOP(7/33=1,2/16=3) 

Gaussian input prepared by ASE

0 2
O                -2.4837880000       -0.6018950000       -0.2654520000
O                -1.9972400000        0.6617750000        0.0595850000
C                 1.4324570000        0.2542220000       -0.4899260000
C                 0.3123890000        0.0831610000        0.4984880000
C                 2.7561690000       -0.2736200000        0.0770470000
H                 1.5463660000        1.3079260000       -0.7474820000
H                 1.1958600000       -0.2757090000       -1.4131750000
H                -0.8425030000        0.5634400000       -0.0573200000
H                -0.0015380000       -0.9415160000        0.6816330000
H                 0.3880160000        0.6720960000        1.4082780000
H                 3.0272380000        0.2606660000        0.9870280000
H                 3.5629160000       -0.1480100000       -0.6438450000
H                 2.6773970000       -1.3327550000        0.3205830000
H                -2.7116090000       -0.9677540000        0.5975880000



