%nprocshared=20
%mem=5GB
#p m062x/cc-pVTZ opt=(ts,calcfc,noeigentest,maxcycles=900) freq scf=(maxcycle=900) IOP(7/33=1,2/16=3) 

Gaussian input prepared by ASE

0 2
O                -1.7703540000       -0.6486400000        0.4864420000
O                -1.6566070000        0.0319710000       -0.7218800000
C                 1.2259810000        0.1792400000        0.6207220000
C                 0.3584060000        1.1982940000       -0.0576300000
C                 1.8952940000       -0.7697650000       -0.3661580000
H                 0.6271570000       -0.3879990000        1.3336950000
H                 1.9876390000        0.7043740000        1.2095180000
H                -0.5715620000        0.4554070000       -0.7333850000
H                -0.2595520000        1.8188300000        0.5827780000
H                 0.8281890000        1.7572450000       -0.8657620000
H                 1.1429730000       -1.3238790000       -0.9278540000
H                 2.5313320000       -1.4890640000        0.1457210000
H                 2.5118510000       -0.2227010000       -1.0796300000
H                -2.2604250000       -0.0254750000        1.0368180000



