%nprocshared=20
%mem=5GB
#p m062x/cc-pVTZ Opt=(ModRedun,Loose,maxcycles=900) Int(Grid=SG1) scf=(maxcycle=900) 

Gaussian input prepared by ASE

0 2
O                 3.4255213349        0.5165585356       -0.6512785826
O                 3.6231839579       -0.7822256315       -0.5735928397
C                 0.2468439774       -1.4350191893        0.0437110890
C                 1.6493679062       -1.4865520185        0.6387572189
C                -0.4426849178       -2.7933801665       -0.0381711329
H                 0.2818091478       -1.0056936327       -0.9804741400
H                -0.3764454871       -0.7364908683        0.6419175484
H                 2.5737490597       -1.2289569873       -0.3372190887
H                 1.8307365150       -0.6844904514        1.3857458267
H                 1.9284754047       -2.4755414746        1.0608340722
H                 0.1049437028       -3.4704795913       -0.7280327950
H                -1.4769588553       -2.6722637368       -0.4236116893
H                -0.4990681090       -3.2814183893        0.9582027723
H                 3.1073677193        0.6483447269       -1.5797080989

4 8 F
8 2 F
4 8 2 F

