%nprocshared=20
%mem=5GB
#p m062x/cc-pVTZ Opt=(ModRedun,Loose,maxcycles=900) Int(Grid=SG1) scf=(maxcycle=900) 

Gaussian input prepared by ASE

0 2
O                -1.8911693894       -0.9126398896        1.7445204564
O                -0.9354414388       -1.7162573979        2.1601271031
C                 1.2564189714        0.9227887300        2.8837712193
C                 1.0952277112       -0.3980039665        2.1399077033
C                 1.0562181070        0.8007485693        4.3911945683
H                 0.5364260997        1.6650297486        2.4773392876
H                 2.2732232114        1.3247780400        2.6868035259
H                -0.0842795388       -0.9948940293        2.4946616608
H                 1.0427037916       -0.2599772753        1.0388267888
H                 1.8792585939       -1.1411696616        2.3990415193
H                 0.0163712809        0.4882441238        4.6264165904
H                 1.2483277610        1.7741375301        4.8897565020
H                 1.7485490313        0.0471855957        4.8235625436
H                -1.7608480607       -0.8871415244        0.7632269862

4 8 F
8 2 F
4 8 2 F

