%nprocshared=20
%mem=5GB
#p m062x/cc-pVTZ opt=(ts,calcfc,noeigentest,maxcycles=900) freq scf=(maxcycle=900) IOP(7/33=1,2/16=3) 

Gaussian input prepared by ASE

0 2
O                 1.8505890000        0.7538310000        0.2219150000
O                 1.7144830000       -0.4145890000       -0.5245340000
C                -1.6721060000       -0.4135500000       -0.1204780000
C                -0.4296840000       -1.1097040000        0.3593080000
C                -1.5539440000        1.1055340000       -0.0633020000
H                -2.5180060000       -0.7412310000        0.4961860000
H                -1.9033260000       -0.7361240000       -1.1373160000
H                 0.5819600000       -0.6779270000       -0.4552520000
H                -0.0483920000       -0.7766120000        1.3211580000
H                -0.3919040000       -2.1883810000        0.2345460000
H                -1.3714170000        1.4412110000        0.9576920000
H                -2.4644240000        1.5848090000       -0.4182400000
H                -0.7190750000        1.4504220000       -0.6722760000
H                 2.2484120000        0.4362150000        1.0412830000



