%nprocshared=20
%mem=5GB
#p m062x/cc-pVTZ opt=(calcfc,maxcycles=900,Tight) freq IOP(7/33=1,2/16=3) scf=(maxcycle=900) 

Gaussian input prepared by ASE

0 1
O                 0.2059276686       -0.7198938331        1.1464502021
O                 1.0544603055        2.4810249983       -0.4126724182
C                -1.1853155925       -0.8308952178        0.8374394401
C                 0.6809915125        0.5685004073        0.9368367830
C                 0.6187289750        1.1894429738       -0.2170807728
H                -1.8050874330       -0.2213694239        1.5563213165
H                -1.4083657928       -0.4701767207       -0.2069850349
H                -1.4577618878       -1.8822341547        0.9320418498
H                 1.1526490876        1.0168620496        1.8091550389
H                 0.2005231871        0.7620733461       -1.1032704874
H                 1.3458827494        2.8342672197        0.4952419127



