%nprocshared=20
%mem=5GB
#p m062x/cc-pVTZ opt=(calcfc,maxcycles=900,Tight) freq IOP(7/33=1,2/16=3) scf=(maxcycle=900) 

Gaussian input prepared by ASE

0 1
O                 0.2308172325       -0.7687914577        1.1274856386
O                 2.4764860182        2.0991736905        0.8585443933
C                -1.1656341012       -0.8596639981        0.8358820993
C                 0.7011580673        0.5187424107        0.9024985348
C                 1.9570479534        0.8457966046        1.0941966527
H                -1.3831475879       -0.5151017076       -0.2159708805
H                -1.4620335482       -1.9428440008        0.9336581675
H                -1.7535024302       -0.2618037454        1.5326346423
H                -0.0393021892        1.2364344018        0.5545545961
H                 2.6934595596        0.1561790292        1.4477481144
H                 1.7148488837        2.6753935544        0.5094096288



