%nprocshared=20
%mem=5GB
#p m062x/cc-pVTZ opt=(calcfc,maxcycles=900,Tight) freq IOP(7/33=1,2/16=3) scf=(maxcycle=900) 

Gaussian input prepared by ASE

0 1
O                 0.1749626587       -0.7615122272        1.1185473156
O                -0.7560518297        1.6409094002        2.5405936346
C                -1.2240953604       -0.9065080202        0.8636362542
C                 0.6398068498        0.5349275588        0.9375862171
C                 0.2556481093        1.5954144176        1.6074830034
H                -1.4683564342       -2.0031153569        0.9647246165
H                -1.8395445404       -0.3379799877        1.6177515591
H                -1.4747170502       -0.5529476134       -0.1367006727
H                 1.4613983510        0.5999916302        0.2268244836
H                 0.7111954854        2.5504783636        1.4551592124
H                -1.1105084227        0.6919186809        2.6288697825



