%nprocshared=20
%mem=5GB
#p m062x/cc-pVTZ opt=(calcfc,maxcycles=900,Tight) freq IOP(7/33=1,2/16=3) scf=(maxcycle=900) 

Gaussian input prepared by ASE

0 1
O                 0.1910679139       -0.7765345232        1.1003172253
O                -0.7482777435        1.6265430518        2.5645124536
C                -1.2018107640       -0.9220276282        0.8138080369
C                 0.6420939998        0.5275909975        0.9408955951
C                 0.2597806464        1.5779292431        1.6276255926
H                -1.4428803690       -0.5902605019       -0.2370230625
H                -1.4428155911       -2.0197112623        0.9015521119
H                -1.8114071120       -0.3607997527        1.5222610871
H                 1.4474641781        0.6143457915        0.2140664187
H                 0.7122057049        2.5328383257        1.4653502083
H                -1.1794088250        0.7057740663        2.5825680867



