%nprocshared=20
%mem=5GB
#p m062x/cc-pVTZ opt=(calcfc,maxcycles=900,Tight) freq IOP(7/33=1,2/16=3) scf=(maxcycle=900) 

Gaussian input prepared by ASE

0 1
O                 0.1521764137       -0.7254665546        1.3224035302
O                 1.4338318689        0.8145809336        3.1956228075
C                -1.1978986575       -0.8962093031        0.8847838483
C                 0.6407530980        0.5336177097        0.9974684611
C                 1.2694605324        1.2493460456        1.8993730742
H                -1.2347555672       -1.5872521786       -0.0060198857
H                -1.7789490771       -1.3758542799        1.7232424436
H                -1.6542675689        0.0578024042        0.6200590117
H                 0.5106880388        0.8497953801       -0.0357512305
H                 1.6953888830        2.2109980208        1.7078434193
H                 0.9903080031       -0.0993792181        3.2401083278



