%nprocshared=20
%mem=5GB
#p m062x/cc-pVTZ opt=(calcfc,maxcycles=900,Tight) freq IOP(7/33=1,2/16=3) scf=(maxcycle=900) 

Gaussian input prepared by ASE

0 1
O                 0.2301196685       -0.7510137051        1.1137626685
O                 0.3891027692        2.8517057024        0.4289473461
C                -1.1650694273       -0.8855586482        0.8332064086
C                 0.6719786246        0.5525433545        0.9264585965
C                -0.0790992879        1.5631625758        0.5583515755
H                -1.3966259996       -0.5416997419       -0.2158753740
H                -1.4268006734       -1.9770373524        0.9374307008
H                -1.7611893789       -0.2999781826        1.5333683053
H                 1.7341822020        0.6597256437        1.1377964469
H                -1.1214429717        1.4820605271        0.3351584027
H                 1.3372126798        2.8582642743        0.7964526147



