%nprocshared=20
%mem=5GB
#p m062x/cc-pVTZ Opt=(ModRedun,Loose,maxcycles=900) Int(Grid=SG1) scf=(maxcycle=900) 

Gaussian input prepared by ASE

0 2
O                 2.5888837316       -2.9858458516        3.4542342484
O                 2.2337330292       -2.5993399429        2.2474090493
C                 3.4845058667        0.6833723258        2.1175113228
C                 2.2365540693       -0.1783472143        2.2719931849
C                 4.3870974706        0.6525354277        3.3470139955
H                 3.1740348810        1.7318350377        1.9204527306
H                 4.0561685948        0.3570956953        1.2225097442
H                 2.5976247345       -1.4951151859        2.1765177753
H                 1.7609206542       -0.0688417752        3.2699765130
H                 1.4895544400       -0.0113971585        1.4668414956
H                 3.8403587420        1.0244819685        4.2397638952
H                 5.2823064147        1.2918928076        3.1960859423
H                 4.7317213650       -0.3816919860        3.5608582337
H                 1.7606321571       -2.8801811997        3.9865922113

4 8 F
8 2 F
4 8 2 F

