%nprocshared=20
%mem=5GB
#p m062x/cc-pVTZ Opt=(ModRedun,Loose,maxcycles=900) Int(Grid=SG1) scf=(maxcycle=900) 

Gaussian input prepared by ASE

0 2
O                 4.3518381033       -1.4267123930        4.3672942271
O                 3.5113995881       -1.8242692739        3.4358665442
C                 3.8936350393       -0.4756517317        0.3436903954
C                 2.9590959039       -0.4146485155        1.5464888457
C                 5.2065227908       -1.2003410760        0.6237804636
H                 4.1194424241        0.5577894995        0.0038247946
H                 3.3732902979       -0.9870368393       -0.4941694746
H                 3.5766397635       -0.9933693646        2.6221687377
H                 2.6904596534        0.6227636563        1.8394049784
H                 2.0428021583       -1.0305903863        1.4233166347
H                 5.7666723104       -0.6884122518        1.4352182275
H                 5.8453816442       -1.2203506642       -0.2841926483
H                 5.0169688185       -2.2482231716        0.9402196128
H                 3.7739635990       -0.9440253800        5.0104466155

4 8 F
8 2 F
4 8 2 F

