%nprocshared=20
%mem=5GB
#p m062x/cc-pVTZ opt=(ts,calcfc,noeigentest,maxcycles=900) freq scf=(maxcycle=900) IOP(7/33=1,2/16=3) 

Gaussian input prepared by ASE

0 2
O                 1.8482490000       -0.7542460000       -0.2218880000
O                 1.7146500000        0.4146580000        0.5241600000
C                -1.6713340000        0.4132720000        0.1206050000
C                -0.4295080000        1.1104640000       -0.3591640000
C                -1.5525850000       -1.1057450000        0.0633200000
H                -2.5175230000        0.7407690000       -0.4957170000
H                -1.9027090000        0.7355190000        1.1375490000
H                 0.5826520000        0.6804580000        0.4556930000
H                -0.0478640000        0.7775820000       -1.3209500000
H                -0.3934370000        2.1892580000       -0.2348840000
H                -1.3701140000       -1.4413820000       -0.9576750000
H                -2.4629100000       -1.5853090000        0.4182790000
H                -0.7176080000       -1.4502700000        0.6722750000
H                 2.2468780000       -0.4378660000       -1.0413000000



