%nprocshared=20
%mem=5GB
#p m062x/cc-pVTZ Opt=(ModRedun,Loose,maxcycles=900) Int(Grid=SG1) scf=(maxcycle=900) 

Gaussian input prepared by ASE

0 2
O                 2.4494675597       -0.3451754224       -0.7980755187
O                 1.3219225354       -0.7283459889       -0.2379251505
C                 1.4288577881        0.9039771010        2.8715417715
C                 1.1822502687       -0.4211967401        2.1595671075
C                 1.1797249099        0.8610169615        4.3759973460
H                 0.7734061713        1.6819445517        2.4247216695
H                 2.4777002741        1.2213391877        2.6885300632
H                 1.3371248970       -0.2273815958        0.8135303289
H                 1.9047905976       -1.2150111941        2.4458945350
H                 0.1387715599       -0.7885220673        2.2614214068
H                 0.1292283905        0.5789630538        4.6022107542
H                 1.3703470502        1.8635840299        4.8135800957
H                 1.8522998427        0.1329348780        4.8776553665
H                 3.0523826583       -1.1196816569       -0.6669108642

4 8 F
8 2 F
4 8 2 F

